n_res = 4;
rc = [ 14, 18, 16, 19 ];
n_tasks = 32;
d = [0, 4, 10, 7, 6, 5, 4, 5, 1, 9, 4, 7, 6, 8, 5, 1, 10, 10, 9, 4, 10, 3, 8, 1, 2, 6, 4, 5, 3, 8, 8, 0];
rr = array2d(1..4, 1..32, [0, 0, 0, 0, 0, 3, 0, 0, 0, 2, 1, 9, 0, 0, 0, 7, 0, 0, 0, 0, 0, 0, 6, 0, 3, 0, 0, 1, 0, 0, 0, 0, 0, 1, 0, 7, 0, 0, 0, 0, 0, 0, 0, 0, 6, 0, 2, 0, 0, 0, 0, 0, 0, 9, 0, 0, 0, 0, 5, 0, 9, 0, 1, 0, 0, 0, 0, 0, 0, 0, 0, 6, 5, 0, 0, 0, 0, 0, 0, 0, 7, 0, 0, 7, 9, 0, 0, 0, 0, 0, 0, 0, 0, 9, 0, 0, 0, 0, 3, 0, 8, 0, 6, 0, 0, 0, 0, 0, 0, 6, 0, 0, 0, 5, 5, 0, 0, 0, 0, 8, 0, 2, 0, 0, 0, 0, 0, 0]);

suc = [
   {2, 3, 4},
   {11, 12, 13},
   {19, 14, 7},
   {8, 21, 5},
   {16, 10, 6},
   {17, 13, 15},
   {8, 18, 12},
   {9, 15},
   {25, 28},
   {29, 13, 14},
   {24, 19, 14},
   {25, 21, 15},
   {18, 30},
   {27, 23},
   {24, 20, 22},
   {24, 27, 20},
   {18, 20, 22},
   {28},
   {25, 21},
   {31, 29, 23},
   {22},
   {27, 23},
   {26},
   {26, 29},
   {26, 31},
   {30},
   {28, 30},
   {31},
   {32},
   {32},
   {32},
   {  } ];

deadline = array2d(1..32, 1..3, [8, 0, 3, 21, 2, 2, 23, 5, 2, 25, 2, 0, 31, 3, 0, 44, 3, 5, 47, 4, 4, 47, 5, 5, 49, 0, 2, 51, 3, 2, 54, 3, 3, 57, 0, 3, 58, 1, 3, 58, 4, 5, 70, 4, 2, 77, 0, 5, 78, 5, 1, 80, 3, 2, 80, 2, 5, 83, 3, 4, 88, 2, 0, 89, 3, 3, 91, 4, 0, 95, 5, 2, 105, 2, 0, 110, 3, 2, 113, 1, 4, 114, 4, 2, 128, 0, 4, 130, 3, 1, 130, 3, 3, 140, 0, 1]);
