n_res = 4;
rc = [ 35, 27, 32, 27 ];
n_tasks = 32;
d = [0, 2, 3, 2, 7, 6, 6, 4, 8, 2, 4, 7, 10, 8, 5, 1, 9, 1, 7, 7, 6, 8, 8, 9, 8, 3, 6, 9, 9, 8, 5, 0];
rr = array2d(1..4, 1..32, [0, 8, 3, 8, 10, 8, 2, 1, 10, 9, 5, 8, 10, 6, 7, 6, 10, 6, 5, 8, 1, 6, 3, 1, 8, 10, 9, 7, 4, 6, 3, 0, 0, 10, 7, 8, 6, 2, 7, 5, 7, 4, 6, 1, 6, 8, 9, 5, 5, 8, 3, 4, 8, 2, 5, 10, 1, 9, 5, 8, 10, 7, 1, 0, 0, 8, 7, 7, 1, 5, 1, 2, 5, 9, 8, 6, 4, 7, 2, 4, 5, 10, 8, 6, 3, 4, 5, 6, 10, 9, 10, 5, 5, 2, 2, 0, 0, 7, 3, 7, 8, 1, 3, 1, 1, 7, 4, 7, 1, 3, 10, 8, 10, 8, 1, 1, 10, 10, 1, 3, 9, 5, 8, 7, 1, 10, 5, 0]);

suc = [
   {2, 3, 4},
   {24, 9, 7},
   {21, 6, 30},
   {9, 13, 5},
   {19, 11, 22},
   {10, 18, 14},
   {8, 16, 17},
   {23},
   {19, 12, 15},
   {16, 26},
   {24, 18, 27},
   {27},
   {27, 20},
   {29, 15},
   {16},
   {31},
   {25},
   {23},
   {20, 21},
   {28, 23},
   {29},
   {25, 26, 31},
   {26, 31},
   {25, 28},
   {30},
   {29},
   {28},
   {30},
   {32},
   {32},
   {32},
   {  } ];

deadline = array2d(1..32, 1..3, [12, 3, 1, 16, 4, 4, 20, 1, 3, 23, 4, 1, 25, 2, 3, 30, 4, 2, 30, 2, 4, 30, 3, 1, 34, 1, 5, 41, 1, 4, 44, 5, 4, 50, 5, 3, 58, 3, 2, 60, 2, 3, 61, 2, 5, 62, 3, 4, 65, 3, 3, 75, 2, 4, 76, 1, 1, 76, 4, 4, 85, 0, 4, 86, 1, 4, 86, 4, 1, 89, 4, 1, 90, 5, 3, 90, 3, 0, 93, 4, 0, 94, 4, 1, 95, 3, 5, 96, 2, 3, 96, 5, 4, 98, 0, 3]);
