n_res = 4;
rc = [ 17, 18, 20, 18 ];
n_tasks = 32;
d = [0, 2, 8, 2, 1, 10, 7, 7, 7, 7, 4, 6, 4, 1, 7, 10, 2, 8, 1, 5, 5, 2, 3, 9, 10, 10, 7, 1, 4, 7, 3, 0];
rr = array2d(1..4, 1..32, [0, 3, 7, 8, 5, 9, 1, 7, 6, 5, 1, 6, 10, 10, 3, 10, 8, 5, 5, 4, 8, 7, 7, 5, 4, 1, 7, 5, 1, 8, 6, 0, 0, 5, 2, 1, 9, 6, 7, 7, 3, 1, 9, 7, 9, 8, 7, 10, 1, 5, 9, 6, 4, 9, 3, 2, 7, 5, 6, 6, 7, 6, 1, 0, 0, 1, 10, 5, 9, 1, 5, 8, 6, 6, 10, 10, 2, 4, 9, 8, 8, 3, 8, 7, 10, 1, 7, 6, 1, 1, 7, 5, 3, 5, 5, 0, 0, 1, 6, 2, 2, 8, 9, 1, 7, 3, 3, 6, 10, 9, 4, 3, 1, 9, 3, 6, 8, 3, 9, 5, 7, 6, 10, 6, 4, 10, 9, 0]);

suc = [
   {2, 3, 4},
   {28, 6},
   {8, 10, 11},
   {12, 5},
   {16},
   {19, 7},
   {9},
   {24},
   {13, 22},
   {17, 18, 14},
   {20},
   {20, 21, 15},
   {25},
   {29},
   {17, 22},
   {22},
   {26, 31},
   {29, 30},
   {26, 23},
   {27},
   {24, 23},
   {25},
   {30},
   {30},
   {31},
   {27},
   {29},
   {31},
   {32},
   {32},
   {32},
   {  } ];

deadline = array2d(1..32, 1..3, [3, 3, 3, 4, 2, 0, 11, 2, 3, 13, 3, 1, 14, 1, 2, 15, 1, 2, 17, 2, 3, 17, 5, 5, 20, 5, 0, 23, 3, 0, 27, 4, 4, 33, 2, 3, 42, 0, 3, 52, 4, 5, 53, 4, 0, 56, 4, 0, 59, 4, 4, 61, 4, 2, 63, 5, 2, 69, 0, 1, 71, 4, 1, 76, 4, 5, 78, 1, 4, 78, 5, 5, 80, 5, 3, 84, 1, 1, 89, 2, 3, 90, 0, 0, 93, 3, 5, 94, 4, 0, 95, 1, 2, 101, 0, 0]);
