n_res = 4;
rc = [ 37, 33, 46, 32 ];
n_tasks = 32;
d = [0, 9, 1, 5, 2, 8, 10, 9, 8, 8, 9, 7, 2, 8, 9, 8, 3, 8, 7, 4, 6, 5, 8, 6, 4, 1, 10, 7, 7, 7, 9, 0];
rr = array2d(1..4, 1..32, [0, 9, 9, 1, 6, 7, 0, 0, 2, 0, 0, 9, 0, 3, 5, 8, 0, 4, 0, 1, 2, 7, 0, 10, 8, 7, 8, 3, 8, 8, 2, 0, 0, 9, 10, 8, 0, 1, 10, 0, 5, 0, 4, 8, 10, 0, 0, 8, 0, 9, 10, 5, 3, 10, 8, 10, 0, 1, 8, 10, 0, 8, 3, 0, 0, 9, 0, 2, 7, 2, 8, 9, 10, 10, 5, 0, 9, 10, 5, 5, 3, 4, 9, 2, 4, 6, 0, 0, 8, 0, 5, 5, 7, 10, 6, 0, 0, 0, 2, 10, 9, 10, 6, 5, 0, 0, 9, 4, 2, 5, 9, 1, 1, 0, 3, 9, 0, 10, 4, 2, 2, 0, 7, 0, 4, 5, 0, 0]);

suc = [
   {2, 3, 4},
   {9, 5, 7},
   {8, 10, 12},
   {5, 6, 7},
   {17, 27, 12},
   {24, 12, 28},
   {16, 10, 26},
   {18, 13, 14},
   {25, 10, 15},
   {19, 11},
   {21, 22},
   {20, 23},
   {16, 24, 21},
   {17, 26, 25},
   {17, 18, 19},
   {19, 22, 23},
   {20, 30},
   {20, 22, 23},
   {28, 31},
   {21},
   {31},
   {28, 30},
   {31},
   {25, 26},
   {27, 29},
   {27, 29},
   {30},
   {29},
   {32},
   {32},
   {32},
   {  } ];

deadline = array2d(1..32, 1..3, [5, 0, 1, 5, 4, 4, 8, 0, 1, 13, 4, 4, 17, 2, 3, 19, 1, 3, 24, 2, 3, 24, 3, 0, 26, 5, 4, 28, 3, 1, 28, 3, 3, 32, 0, 1, 38, 2, 5, 39, 0, 1, 46, 4, 4, 53, 5, 4, 73, 0, 4, 74, 0, 3, 86, 5, 0, 90, 5, 1, 92, 2, 4, 99, 0, 5, 103, 0, 2, 104, 2, 1, 107, 1, 4, 109, 5, 5, 113, 2, 3, 119, 2, 5, 122, 3, 3, 124, 4, 1, 126, 4, 4, 135, 1, 5]);
