n_res = 4;
rc = [ 27, 20, 29, 24 ];
n_tasks = 32;
d = [0, 1, 6, 7, 9, 1, 8, 10, 3, 8, 6, 9, 9, 10, 9, 7, 6, 1, 3, 3, 2, 8, 5, 1, 10, 3, 1, 6, 8, 5, 6, 0];
rr = array2d(1..4, 1..32, [0, 8, 9, 7, 0, 1, 9, 8, 0, 0, 0, 3, 0, 7, 0, 0, 0, 0, 0, 10, 0, 0, 1, 9, 0, 1, 8, 0, 9, 1, 0, 0, 0, 0, 6, 0, 0, 0, 0, 0, 0, 10, 9, 9, 2, 0, 7, 0, 0, 5, 9, 7, 10, 0, 4, 0, 1, 0, 4, 0, 6, 5, 7, 0, 0, 1, 1, 1, 1, 4, 0, 0, 9, 0, 0, 0, 1, 8, 3, 5, 9, 0, 0, 0, 10, 10, 0, 0, 0, 5, 9, 6, 6, 8, 0, 0, 0, 0, 9, 5, 0, 0, 0, 0, 0, 4, 4, 3, 0, 5, 0, 0, 0, 7, 5, 0, 5, 0, 7, 8, 0, 0, 8, 0, 0, 0, 0, 0]);

suc = [
   {2, 3, 4},
   {12, 13, 6},
   {16, 26, 12},
   {8, 9, 5},
   {16, 20, 7},
   {18, 11, 23},
   {24, 14, 23},
   {10, 22},
   {25, 11, 15},
   {24, 11, 20},
   {17, 29},
   {19, 15},
   {17, 20, 23},
   {25, 18, 22},
   {24, 21, 22},
   {17, 18, 27},
   {19, 31},
   {19, 21},
   {30},
   {26, 21, 31},
   {28},
   {27, 28},
   {25},
   {27, 28, 30},
   {26, 30},
   {29},
   {31},
   {29},
   {32},
   {32},
   {32},
   {  } ];

deadline = array2d(1..32, 1..3, [6, 4, 1, 7, 4, 1, 8, 1, 4, 16, 5, 1, 21, 5, 0, 21, 2, 5, 24, 5, 0, 26, 1, 3, 34, 4, 4, 35, 3, 1, 39, 3, 1, 52, 0, 0, 59, 2, 3, 71, 2, 5, 73, 1, 3, 73, 0, 1, 73, 1, 4, 76, 4, 1, 76, 2, 3, 79, 3, 1, 79, 3, 4, 79, 3, 4, 85, 5, 5, 96, 1, 1, 102, 3, 4, 110, 1, 0, 113, 0, 5, 118, 2, 0, 123, 4, 5, 129, 2, 4, 133, 2, 3, 136, 5, 3]);
