n_res = 4;
rc = [ 15, 15, 9, 11 ];
n_tasks = 32;
d = [0, 8, 4, 9, 9, 2, 5, 1, 2, 6, 9, 1, 10, 10, 5, 7, 9, 4, 1, 4, 2, 3, 7, 4, 8, 6, 10, 9, 3, 4, 1, 0];
rr = array2d(1..4, 1..32, [0, 0, 0, 0, 8, 0, 0, 0, 0, 0, 4, 0, 7, 0, 2, 0, 7, 0, 0, 0, 0, 0, 2, 0, 0, 0, 0, 0, 0, 0, 9, 0, 0, 0, 1, 0, 0, 0, 0, 3, 0, 10, 0, 0, 0, 9, 0, 10, 0, 0, 0, 0, 0, 0, 0, 1, 5, 8, 0, 9, 0, 0, 0, 0, 0, 0, 0, 0, 0, 0, 4, 0, 0, 0, 0, 9, 0, 0, 0, 0, 0, 8, 0, 2, 0, 0, 0, 0, 0, 0, 0, 0, 5, 8, 0, 0, 0, 3, 0, 4, 0, 2, 0, 0, 5, 0, 0, 0, 0, 0, 0, 0, 0, 0, 1, 0, 9, 8, 0, 0, 0, 0, 4, 0, 0, 0, 0, 0]);

suc = [
   {2, 3, 4},
   {10, 11, 5},
   {8, 5, 15},
   {7},
   {16, 18, 6},
   {28},
   {12, 20, 15},
   {24, 9, 17},
   {14, 30},
   {13, 23},
   {29},
   {16, 26, 14},
   {19},
   {25},
   {17, 21},
   {24, 23},
   {29, 22},
   {27, 20, 22},
   {26, 20, 28},
   {30},
   {27, 22, 23},
   {26, 31},
   {29},
   {25},
   {27, 28},
   {30},
   {31},
   {31},
   {32},
   {32},
   {32},
   {  } ];

deadline = array2d(1..32, 1..3, [1, 0, 4, 9, 0, 5, 16, 0, 1, 20, 3, 3, 25, 5, 2, 28, 5, 4, 31, 0, 2, 37, 2, 4, 39, 1, 0, 40, 0, 2, 42, 1, 2, 44, 0, 0, 46, 5, 0, 57, 5, 0, 58, 3, 2, 58, 5, 5, 67, 0, 1, 68, 3, 5, 70, 2, 3, 71, 4, 1, 72, 2, 5, 74, 3, 5, 75, 3, 1, 79, 0, 2, 81, 3, 1, 85, 0, 4, 88, 3, 0, 91, 0, 5, 106, 5, 2, 107, 4, 2, 109, 1, 1, 109, 3, 4]);
