n_res = 4;
rc = [ 34, 26, 34, 42 ];
n_tasks = 32;
d = [0, 5, 2, 7, 4, 1, 3, 9, 8, 10, 10, 8, 9, 10, 4, 9, 6, 3, 9, 8, 4, 3, 4, 9, 9, 5, 4, 7, 7, 1, 9, 0];
rr = array2d(1..4, 1..32, [0, 5, 10, 4, 0, 9, 5, 7, 7, 9, 0, 0, 1, 1, 9, 7, 9, 4, 8, 0, 3, 8, 6, 4, 10, 8, 4, 9, 0, 9, 2, 0, 0, 10, 4, 5, 6, 0, 5, 0, 0, 8, 5, 0, 9, 3, 10, 1, 8, 8, 0, 1, 0, 7, 0, 8, 0, 9, 4, 0, 1, 10, 3, 0, 0, 9, 1, 4, 2, 0, 0, 7, 3, 0, 0, 1, 6, 10, 8, 5, 6, 6, 9, 4, 1, 9, 0, 7, 2, 3, 7, 0, 8, 1, 0, 0, 0, 7, 9, 6, 0, 8, 9, 1, 0, 7, 8, 9, 0, 8, 10, 9, 0, 0, 0, 7, 0, 7, 9, 4, 7, 6, 8, 9, 1, 4, 0, 0]);

suc = [
   {2, 3, 4},
   {11, 12, 7},
   {29, 5, 6},
   {9, 10},
   {16},
   {30},
   {8, 25, 26},
   {21},
   {19},
   {15},
   {22},
   {13, 14},
   {20},
   {18},
   {17, 18, 27},
   {25},
   {23},
   {28, 22, 31},
   {26, 23},
   {25},
   {27, 23},
   {24},
   {29},
   {30},
   {27, 30},
   {31},
   {31},
   {29},
   {32},
   {32},
   {32},
   {  } ];

deadline = array2d(1..32, 1..3, [1, 4, 2, 6, 3, 4, 16, 0, 1, 20, 0, 1, 21, 5, 4, 22, 0, 4, 22, 1, 1, 30, 1, 3, 31, 2, 2, 32, 1, 0, 35, 5, 2, 43, 4, 0, 45, 4, 3, 52, 4, 5, 54, 3, 3, 55, 3, 3, 62, 1, 4, 68, 1, 0, 74, 2, 0, 89, 1, 1, 89, 0, 2, 94, 0, 1, 96, 2, 1, 101, 4, 1, 103, 4, 1, 105, 2, 0, 107, 1, 5, 118, 0, 2, 118, 5, 4, 119, 4, 1, 120, 2, 1, 130, 3, 1]);
