n_res = 4;
rc = [ 17, 19, 23, 23 ];
n_tasks = 32;
d = [0, 9, 3, 6, 8, 8, 7, 3, 7, 1, 10, 1, 7, 7, 7, 6, 9, 2, 7, 3, 3, 8, 9, 1, 1, 3, 10, 3, 6, 4, 3, 0];
rr = array2d(1..4, 1..32, [0, 0, 5, 6, 7, 0, 0, 0, 0, 0, 8, 0, 0, 0, 0, 0, 3, 0, 0, 0, 9, 7, 0, 0, 0, 0, 0, 8, 1, 2, 9, 0, 0, 0, 6, 9, 0, 5, 0, 0, 4, 0, 0, 0, 0, 6, 8, 3, 0, 0, 2, 10, 0, 0, 9, 0, 0, 0, 10, 5, 0, 0, 3, 0, 0, 8, 0, 3, 10, 0, 0, 0, 0, 0, 9, 9, 8, 0, 0, 0, 0, 4, 6, 0, 8, 0, 6, 1, 2, 8, 0, 5, 0, 10, 6, 0, 0, 7, 6, 9, 6, 0, 3, 2, 0, 5, 9, 9, 7, 2, 0, 8, 6, 0, 7, 3, 10, 0, 0, 0, 4, 4, 2, 0, 8, 0, 1, 0]);

suc = [
   {2, 3, 4},
   {18, 27},
   {24, 11, 6},
   {17, 13, 5},
   {8, 9, 10},
   {8, 21, 7},
   {12, 23, 15},
   {22},
   {24, 15},
   {14},
   {16, 31},
   {17},
   {19},
   {27},
   {16},
   {20, 30},
   {22},
   {21},
   {26},
   {25},
   {22},
   {28},
   {31},
   {31},
   {29},
   {27},
   {29},
   {29, 30},
   {32},
   {32},
   {32},
   {  } ];

deadline = array2d(1..32, 1..3, [1, 1, 4, 7, 5, 2, 7, 1, 2, 11, 3, 5, 20, 1, 5, 23, 0, 5, 23, 3, 3, 26, 2, 3, 30, 0, 5, 40, 2, 1, 41, 3, 0, 43, 1, 3, 44, 3, 5, 46, 5, 1, 50, 3, 5, 56, 3, 1, 62, 4, 2, 69, 1, 3, 70, 1, 5, 75, 5, 1, 76, 1, 4, 77, 0, 4, 80, 2, 3, 80, 0, 4, 87, 5, 1, 88, 5, 2, 90, 2, 2, 100, 3, 4, 105, 2, 2, 106, 1, 3, 107, 1, 2, 111, 4, 1]);
