n_res = 4;
rc = [ 20, 26, 12, 17 ];
n_tasks = 32;
d = [0, 8, 5, 9, 3, 6, 8, 8, 10, 1, 5, 7, 10, 3, 2, 6, 4, 5, 6, 6, 7, 3, 8, 8, 4, 2, 3, 5, 3, 2, 8, 0];
rr = array2d(1..4, 1..32, [0, 2, 2, 7, 5, 4, 0, 0, 5, 0, 2, 10, 0, 1, 7, 3, 2, 10, 8, 1, 4, 0, 3, 0, 3, 2, 0, 1, 0, 0, 0, 0, 0, 3, 3, 0, 1, 8, 10, 0, 0, 7, 3, 6, 0, 0, 7, 10, 10, 0, 0, 0, 7, 6, 0, 0, 8, 1, 0, 7, 0, 5, 0, 0, 0, 3, 0, 0, 0, 1, 0, 0, 0, 0, 0, 0, 4, 6, 0, 0, 0, 3, 9, 0, 0, 0, 3, 7, 0, 0, 0, 9, 9, 0, 0, 0, 0, 8, 1, 0, 1, 0, 0, 5, 0, 0, 0, 8, 0, 0, 0, 4, 5, 0, 4, 0, 0, 9, 5, 0, 0, 0, 2, 0, 7, 8, 2, 0]);

suc = [
   {2, 3, 4},
   {26, 5, 22},
   {10, 21, 31},
   {8, 9, 12},
   {16, 27, 6},
   {18, 7},
   {9, 25},
   {17, 14, 30},
   {23, 29, 15},
   {11, 13, 15},
   {17, 25},
   {19, 22},
   {27},
   {25, 22},
   {30},
   {18, 20},
   {24, 26},
   {19, 28},
   {23},
   {21, 30, 23},
   {24},
   {24, 31},
   {31},
   {28},
   {28},
   {27},
   {29},
   {29},
   {32},
   {32},
   {32},
   {  } ];

deadline = array2d(1..32, 1..3, [2, 1, 4, 4, 3, 5, 10, 0, 0, 17, 4, 0, 19, 3, 4, 22, 1, 4, 22, 2, 1, 26, 3, 3, 31, 2, 3, 31, 3, 0, 43, 4, 5, 50, 3, 2, 51, 3, 4, 52, 5, 3, 53, 5, 0, 56, 1, 0, 62, 2, 3, 63, 4, 5, 74, 5, 3, 75, 5, 2, 76, 2, 5, 82, 4, 2, 83, 4, 2, 88, 4, 3, 90, 0, 2, 92, 2, 1, 97, 3, 3, 97, 1, 2, 106, 4, 3, 106, 3, 1, 112, 2, 5, 127, 5, 2]);
