n_res = 4;
rc = [ 13, 14, 13, 13 ];
n_tasks = 32;
d = [0, 1, 9, 5, 6, 4, 9, 7, 4, 8, 10, 4, 10, 2, 8, 9, 10, 3, 10, 4, 5, 3, 6, 5, 6, 4, 4, 4, 5, 3, 6, 0];
rr = array2d(1..4, 1..32, [0, 0, 0, 0, 0, 2, 5, 0, 0, 0, 2, 2, 0, 9, 0, 0, 0, 8, 10, 0, 0, 0, 5, 7, 0, 0, 9, 0, 0, 7, 9, 0, 0, 5, 8, 10, 6, 0, 0, 0, 0, 1, 0, 0, 7, 0, 7, 5, 10, 2, 6, 0, 2, 0, 3, 1, 6, 0, 0, 8, 0, 10, 0, 0, 0, 7, 5, 0, 10, 0, 4, 7, 10, 0, 0, 0, 5, 0, 0, 0, 0, 0, 0, 0, 4, 6, 8, 8, 7, 0, 1, 9, 3, 9, 5, 0, 0, 7, 4, 8, 2, 10, 0, 0, 0, 0, 8, 0, 0, 0, 1, 0, 7, 0, 6, 8, 0, 0, 0, 0, 6, 10, 0, 1, 0, 1, 5, 0]);

suc = [
   {2, 3, 4},
   {10, 11, 15},
   {8, 12, 5},
   {19},
   {9, 6, 7},
   {20, 28, 14},
   {16, 13, 30},
   {22},
   {17, 26, 11},
   {18, 12},
   {23},
   {26},
   {24, 19, 22},
   {27, 21},
   {16, 17, 25},
   {19, 29, 23},
   {28, 29, 22},
   {20, 21},
   {31},
   {24, 25},
   {25},
   {23},
   {31},
   {26},
   {30},
   {27},
   {29, 31},
   {30},
   {32},
   {32},
   {32},
   {  } ];

deadline = array2d(1..32, 1..3, [2, 0, 5, 7, 4, 1, 9, 0, 5, 17, 3, 5, 24, 3, 1, 25, 4, 4, 27, 5, 2, 30, 3, 5, 30, 0, 4, 32, 4, 1, 34, 2, 2, 38, 1, 5, 43, 3, 5, 48, 0, 4, 50, 3, 2, 51, 4, 5, 51, 1, 4, 57, 4, 3, 58, 1, 3, 59, 5, 5, 68, 5, 2, 71, 2, 5, 73, 1, 3, 74, 0, 3, 80, 1, 3, 85, 1, 0, 94, 5, 3, 102, 1, 3, 104, 1, 5, 117, 0, 1, 123, 2, 1, 123, 1, 5]);
