n_res = 4;
rc = [ 15, 15, 17, 16 ];
n_tasks = 32;
d = [0, 6, 7, 6, 4, 7, 6, 7, 8, 7, 9, 5, 9, 7, 1, 10, 2, 6, 10, 10, 3, 5, 1, 3, 9, 2, 8, 6, 3, 5, 8, 0];
rr = array2d(1..4, 1..32, [0, 1, 4, 5, 6, 4, 10, 3, 2, 4, 3, 3, 2, 4, 2, 9, 6, 2, 7, 10, 6, 3, 1, 7, 4, 8, 10, 1, 6, 6, 9, 0, 0, 6, 7, 4, 10, 9, 2, 6, 9, 3, 10, 2, 6, 1, 3, 1, 4, 3, 6, 5, 8, 6, 1, 5, 9, 5, 4, 10, 6, 6, 5, 0, 0, 8, 7, 1, 3, 8, 2, 1, 1, 2, 3, 1, 1, 6, 3, 7, 3, 10, 10, 4, 8, 10, 4, 1, 8, 1, 7, 6, 6, 10, 4, 0, 0, 6, 4, 7, 9, 3, 5, 5, 2, 3, 8, 4, 1, 10, 9, 10, 1, 9, 5, 4, 9, 2, 6, 3, 4, 7, 2, 9, 10, 10, 9, 0]);

suc = [
   {2, 3, 4},
   {8, 10, 5},
   {17, 29},
   {17, 6, 7},
   {18, 22, 7},
   {11, 12, 13},
   {9},
   {25, 29, 14},
   {19, 11},
   {16, 26, 20},
   {20},
   {27, 21, 23},
   {24, 14, 15},
   {20, 31},
   {25, 30},
   {27, 23},
   {21},
   {19},
   {24},
   {23},
   {24, 25, 22},
   {28},
   {28},
   {28},
   {31},
   {27, 29},
   {30, 31},
   {30},
   {32},
   {32},
   {32},
   {  } ];

deadline = array2d(1..32, 1..3, [2, 3, 5, 9, 1, 2, 19, 3, 2, 20, 5, 2, 23, 4, 1, 28, 0, 1, 36, 4, 4, 39, 4, 5, 43, 4, 0, 44, 0, 3, 48, 3, 0, 55, 2, 4, 58, 5, 3, 59, 2, 2, 64, 5, 5, 65, 4, 1, 76, 1, 5, 79, 0, 1, 87, 4, 5, 92, 5, 4, 97, 1, 5, 104, 3, 4, 111, 4, 5, 116, 1, 5, 116, 5, 0, 118, 3, 4, 120, 4, 5, 122, 1, 1, 124, 3, 2, 126, 4, 0, 131, 0, 4, 131, 1, 0]);
