n_res = 4;
rc = [ 25, 31, 30, 29 ];
n_tasks = 32;
d = [0, 2, 5, 8, 6, 8, 1, 4, 1, 8, 5, 2, 4, 9, 5, 9, 2, 7, 2, 4, 1, 9, 5, 3, 3, 4, 10, 2, 5, 1, 8, 0];
rr = array2d(1..4, 1..32, [0, 1, 7, 9, 6, 1, 10, 10, 6, 5, 3, 1, 3, 9, 1, 4, 7, 5, 5, 7, 5, 2, 7, 6, 1, 3, 6, 8, 7, 7, 9, 0, 0, 7, 3, 7, 5, 7, 1, 9, 3, 7, 3, 8, 5, 1, 10, 8, 4, 2, 3, 3, 1, 9, 9, 5, 8, 6, 6, 8, 2, 9, 1, 0, 0, 2, 3, 3, 1, 1, 1, 6, 8, 4, 7, 1, 9, 10, 6, 5, 5, 5, 9, 3, 1, 4, 8, 5, 5, 2, 4, 9, 1, 1, 5, 0, 0, 2, 6, 8, 1, 1, 3, 2, 3, 8, 9, 4, 2, 7, 1, 4, 9, 9, 8, 3, 5, 7, 4, 6, 10, 1, 7, 8, 6, 9, 3, 0]);

suc = [
   {2, 3, 4},
   {10, 22, 7},
   {22},
   {8, 5, 6},
   {25, 12, 21},
   {9, 14, 7},
   {23},
   {26, 11},
   {16, 17, 18},
   {21, 15},
   {24, 25, 19},
   {13},
   {16},
   {20, 21},
   {19, 30},
   {24, 26, 28},
   {19, 29},
   {27, 20},
   {31},
   {28},
   {27, 23},
   {25, 26, 23},
   {28},
   {27, 29},
   {29},
   {30, 31},
   {31},
   {30},
   {32},
   {32},
   {32},
   {  } ];

deadline = array2d(1..32, 1..3, [7, 1, 4, 11, 4, 5, 15, 2, 2, 17, 0, 3, 34, 2, 4, 35, 2, 1, 37, 5, 5, 45, 3, 3, 51, 5, 5, 52, 3, 1, 52, 2, 4, 61, 4, 2, 62, 3, 0, 63, 5, 3, 65, 1, 1, 69, 5, 0, 71, 4, 3, 72, 1, 1, 75, 3, 4, 77, 5, 1, 78, 3, 2, 83, 2, 0, 85, 2, 5, 85, 1, 5, 92, 0, 4, 100, 5, 2, 107, 4, 0, 108, 4, 4, 118, 4, 0, 120, 1, 1, 121, 2, 3, 123, 3, 3]);
