n_res = 4;
rc = [ 15, 15, 18, 17 ];
n_tasks = 32;
d = [0, 7, 4, 4, 2, 3, 10, 3, 3, 3, 10, 3, 8, 5, 7, 5, 4, 1, 5, 9, 6, 5, 10, 2, 9, 4, 2, 10, 8, 2, 4, 0];
rr = array2d(1..4, 1..32, [0, 2, 5, 7, 4, 2, 8, 9, 3, 7, 3, 3, 7, 10, 5, 8, 1, 5, 4, 8, 3, 1, 2, 7, 7, 5, 10, 9, 2, 2, 2, 0, 0, 1, 1, 6, 6, 3, 4, 9, 7, 2, 3, 4, 4, 6, 5, 2, 3, 7, 4, 8, 9, 1, 2, 3, 10, 7, 9, 4, 10, 9, 1, 0, 0, 5, 4, 1, 5, 2, 2, 3, 5, 7, 10, 10, 3, 3, 4, 4, 9, 8, 6, 9, 7, 7, 8, 5, 7, 8, 5, 1, 10, 4, 2, 0, 0, 5, 10, 4, 5, 5, 7, 1, 5, 2, 9, 5, 8, 8, 2, 7, 6, 10, 10, 10, 1, 6, 9, 5, 8, 3, 3, 1, 1, 3, 2, 0]);

suc = [
   {2, 3, 4},
   {18, 11, 6},
   {5},
   {8, 9, 16},
   {19, 13, 7},
   {12},
   {20, 15},
   {19, 20, 23},
   {10, 15},
   {11, 14},
   {12, 21},
   {24, 13, 30},
   {22},
   {17, 26},
   {25, 28},
   {20},
   {27, 28, 29},
   {22, 23},
   {25, 21},
   {24, 27, 21},
   {31},
   {31},
   {24, 25, 29},
   {28},
   {27},
   {29, 30},
   {30},
   {31},
   {32},
   {32},
   {32},
   {  } ];

deadline = array2d(1..32, 1..3, [4, 2, 5, 8, 4, 4, 14, 0, 2, 15, 2, 5, 17, 5, 3, 25, 0, 2, 30, 1, 4, 35, 1, 1, 35, 3, 4, 38, 1, 1, 44, 3, 1, 46, 5, 5, 47, 2, 3, 53, 1, 2, 54, 3, 0, 55, 0, 4, 55, 1, 4, 62, 2, 4, 65, 3, 4, 65, 3, 5, 66, 1, 5, 70, 2, 0, 71, 3, 2, 71, 5, 0, 77, 3, 1, 82, 5, 1, 87, 2, 0, 92, 2, 2, 93, 2, 2, 95, 3, 2, 99, 3, 3, 101, 5, 4]);
