n_res = 4;
rc = [ 28, 29, 22, 28 ];
n_tasks = 32;
d = [0, 6, 8, 2, 6, 1, 7, 9, 1, 5, 3, 6, 1, 8, 5, 4, 3, 7, 7, 1, 1, 4, 2, 8, 4, 7, 5, 9, 3, 1, 9, 0];
rr = array2d(1..4, 1..32, [0, 4, 9, 7, 8, 5, 7, 7, 4, 3, 6, 8, 8, 6, 6, 9, 6, 5, 4, 9, 6, 9, 3, 7, 7, 2, 6, 10, 9, 2, 3, 0, 0, 3, 7, 3, 10, 8, 10, 10, 6, 3, 1, 9, 3, 10, 6, 6, 3, 3, 7, 9, 4, 2, 7, 7, 9, 5, 4, 10, 8, 4, 1, 0, 0, 7, 9, 7, 3, 10, 8, 1, 8, 2, 1, 1, 6, 10, 1, 4, 3, 5, 3, 5, 3, 7, 6, 2, 8, 8, 1, 6, 9, 8, 2, 0, 0, 1, 4, 5, 6, 6, 9, 4, 3, 8, 7, 2, 3, 10, 10, 4, 8, 2, 8, 1, 10, 5, 8, 4, 9, 10, 6, 10, 2, 4, 4, 0]);

suc = [
   {2, 3, 4},
   {10, 6, 30},
   {16, 15},
   {12, 5, 7},
   {20},
   {9, 21},
   {8, 16, 11},
   {24, 18, 14},
   {17, 18, 29},
   {13},
   {20, 13},
   {22},
   {25},
   {21},
   {30},
   {19},
   {28},
   {23},
   {21, 23},
   {26},
   {27},
   {26},
   {31},
   {30},
   {26},
   {27, 29},
   {28},
   {31},
   {32},
   {32},
   {32},
   {  } ];

deadline = array2d(1..32, 1..3, [7, 2, 0, 15, 1, 3, 17, 5, 5, 20, 2, 5, 24, 0, 2, 26, 1, 5, 28, 5, 3, 30, 4, 2, 39, 3, 5, 48, 0, 4, 50, 2, 1, 53, 4, 0, 54, 3, 1, 58, 0, 0, 61, 4, 5, 62, 1, 0, 62, 3, 3, 63, 5, 2, 67, 4, 3, 70, 0, 0, 72, 0, 4, 80, 1, 5, 84, 2, 4, 90, 1, 1, 96, 4, 0, 100, 2, 1, 102, 3, 2, 104, 3, 5, 113, 1, 2, 118, 4, 5, 120, 0, 1, 123, 2, 3]);
