n_res = 4;
rc = [ 16, 16, 16, 18 ];
n_tasks = 32;
d = [0, 7, 1, 7, 2, 8, 8, 4, 5, 3, 4, 1, 9, 9, 3, 4, 2, 7, 7, 7, 10, 1, 7, 9, 7, 9, 8, 3, 1, 9, 8, 0];
rr = array2d(1..4, 1..32, [0, 2, 10, 0, 0, 5, 0, 0, 0, 0, 0, 0, 0, 8, 3, 0, 7, 0, 4, 6, 10, 0, 5, 0, 0, 0, 0, 2, 2, 4, 0, 0, 0, 0, 0, 8, 3, 0, 0, 0, 0, 9, 8, 0, 6, 0, 0, 3, 6, 3, 7, 0, 2, 9, 0, 10, 0, 0, 0, 2, 8, 0, 0, 0, 0, 9, 6, 0, 0, 0, 6, 0, 0, 1, 0, 3, 5, 6, 0, 7, 0, 2, 1, 2, 0, 6, 0, 0, 10, 0, 10, 4, 0, 0, 2, 0, 0, 0, 0, 9, 0, 7, 10, 7, 2, 4, 0, 0, 5, 0, 0, 0, 2, 3, 10, 8, 7, 5, 5, 0, 2, 7, 0, 0, 4, 0, 3, 0]);

suc = [
   {2, 3, 4},
   {11, 5, 6},
   {17, 14, 23},
   {16, 26, 5},
   {8, 9, 7},
   {10, 13, 7},
   {12, 23, 15},
   {10, 13, 14},
   {19, 28, 15},
   {17, 18, 22},
   {16, 29, 23},
   {17, 20},
   {27, 19, 28},
   {19, 31, 15},
   {24, 18, 22},
   {25, 20, 21},
   {25, 29},
   {27, 21},
   {20, 21},
   {24, 22},
   {30},
   {30},
   {24, 25},
   {30},
   {31},
   {27, 28},
   {29},
   {31},
   {32},
   {32},
   {32},
   {  } ];

deadline = array2d(1..32, 1..3, [3, 2, 5, 6, 1, 3, 9, 3, 3, 11, 1, 2, 13, 5, 0, 34, 1, 1, 36, 2, 3, 43, 4, 5, 47, 3, 1, 48, 5, 2, 54, 0, 2, 54, 0, 4, 58, 3, 1, 63, 0, 3, 65, 2, 5, 66, 3, 0, 67, 2, 1, 68, 1, 5, 70, 0, 2, 78, 4, 3, 79, 0, 4, 87, 5, 0, 97, 5, 1, 98, 5, 5, 102, 1, 3, 108, 4, 4, 110, 3, 4, 113, 2, 1, 115, 4, 2, 124, 3, 1, 134, 4, 5, 137, 4, 4]);
