n_res = 4;
rc = [ 10, 13, 10, 10 ];
n_tasks = 32;
d = [0, 7, 6, 2, 1, 10, 4, 9, 10, 8, 4, 9, 1, 9, 10, 8, 9, 5, 3, 6, 1, 7, 7, 6, 1, 3, 9, 2, 1, 2, 9, 0];
rr = array2d(1..4, 1..32, [0, 0, 0, 10, 0, 2, 3, 0, 0, 0, 0, 0, 0, 0, 0, 0, 0, 0, 0, 0, 0, 5, 9, 0, 0, 0, 0, 0, 0, 0, 0, 0, 0, 0, 0, 0, 0, 0, 0, 0, 2, 0, 10, 0, 0, 0, 4, 3, 1, 0, 0, 8, 9, 0, 0, 0, 3, 1, 0, 0, 0, 0, 8, 0, 0, 0, 0, 0, 10, 0, 0, 0, 0, 0, 0, 2, 8, 0, 0, 0, 0, 7, 0, 0, 0, 0, 0, 8, 0, 0, 8, 0, 8, 0, 0, 0, 0, 8, 8, 0, 0, 0, 0, 2, 0, 1, 0, 0, 0, 5, 0, 0, 0, 0, 1, 0, 0, 0, 0, 0, 0, 0, 0, 3, 0, 7, 0, 0]);

suc = [
   {2, 3, 4},
   {18, 11, 7},
   {16, 10, 18},
   {8, 10, 5},
   {18, 12, 6},
   {24, 14},
   {16, 9, 15},
   {17, 11, 21},
   {17, 31},
   {25, 13, 14},
   {19, 14, 15},
   {29, 19, 13},
   {31},
   {26, 22, 30},
   {27, 28, 23},
   {17, 20, 21},
   {26, 28},
   {20, 21},
   {30, 23},
   {24, 25, 22},
   {24, 25, 22},
   {27, 23},
   {31},
   {28},
   {26},
   {27},
   {29},
   {29, 30},
   {32},
   {32},
   {32},
   {  } ];

deadline = array2d(1..32, 1..3, [1, 0, 4, 2, 1, 3, 6, 5, 0, 6, 4, 3, 7, 1, 3, 7, 0, 2, 15, 3, 2, 23, 3, 0, 25, 1, 4, 26, 5, 0, 28, 5, 0, 30, 4, 2, 30, 4, 5, 31, 0, 3, 33, 4, 0, 34, 4, 1, 39, 4, 3, 42, 4, 3, 66, 4, 2, 72, 5, 1, 75, 4, 3, 76, 2, 4, 83, 0, 5, 86, 4, 3, 88, 2, 5, 89, 1, 3, 91, 5, 4, 94, 2, 0, 96, 2, 5, 102, 5, 5, 111, 5, 1, 113, 2, 4]);
