n_res = 4;
rc = [ 22, 25, 23, 23 ];
n_tasks = 32;
d = [0, 5, 8, 10, 10, 9, 7, 1, 5, 10, 10, 8, 4, 9, 8, 8, 1, 9, 10, 8, 5, 6, 5, 9, 6, 1, 10, 8, 8, 2, 10, 0];
rr = array2d(1..4, 1..32, [0, 0, 0, 5, 4, 2, 5, 5, 2, 9, 9, 3, 0, 9, 7, 2, 9, 1, 0, 0, 1, 9, 3, 0, 3, 0, 0, 5, 0, 7, 6, 0, 0, 7, 7, 0, 7, 0, 8, 7, 6, 8, 0, 3, 0, 8, 5, 9, 0, 0, 0, 1, 0, 4, 6, 0, 10, 0, 9, 0, 0, 0, 6, 0, 0, 1, 0, 0, 0, 0, 0, 10, 0, 0, 0, 4, 0, 3, 0, 0, 0, 0, 4, 7, 10, 0, 0, 6, 0, 10, 0, 0, 0, 0, 7, 0, 0, 0, 5, 3, 0, 10, 0, 0, 0, 0, 8, 8, 8, 0, 0, 0, 6, 8, 7, 5, 0, 0, 0, 0, 0, 0, 0, 0, 1, 4, 7, 0]);

suc = [
   {2, 3, 4},
   {10, 12, 31},
   {8, 21},
   {26, 5},
   {9, 6, 15},
   {28, 7},
   {17, 18, 27},
   {10},
   {24, 11, 22},
   {16, 19},
   {17, 21},
   {13, 14},
   {16, 19},
   {21},
   {16, 20, 23},
   {24, 17},
   {25},
   {25, 19},
   {22, 30},
   {22, 31},
   {25, 27, 23},
   {29},
   {28},
   {27, 28},
   {29},
   {31},
   {30},
   {29, 30},
   {32},
   {32},
   {32},
   {  } ];

deadline = array2d(1..32, 1..3, [12, 0, 5, 17, 5, 1, 19, 3, 3, 26, 5, 2, 39, 1, 3, 41, 3, 2, 45, 3, 4, 51, 2, 0, 51, 4, 5, 54, 3, 0, 67, 3, 5, 69, 5, 2, 69, 0, 5, 80, 3, 2, 82, 4, 3, 84, 5, 3, 92, 2, 5, 94, 0, 0, 99, 0, 4, 114, 0, 3, 121, 5, 5, 130, 0, 3, 138, 3, 1, 141, 5, 2, 149, 3, 3, 151, 2, 0, 155, 5, 5, 155, 0, 3, 157, 3, 0, 162, 4, 3, 164, 0, 5, 165, 4, 4]);
