n_res = 4;
rc = [ 9, 25, 17, 15 ];
n_tasks = 32;
d = [0, 10, 9, 3, 5, 5, 1, 1, 5, 5, 6, 4, 10, 4, 10, 1, 5, 4, 8, 3, 8, 4, 1, 4, 4, 1, 7, 4, 2, 1, 2, 0];
rr = array2d(1..4, 1..32, [0, 0, 2, 0, 3, 0, 0, 0, 0, 0, 0, 6, 0, 0, 0, 0, 0, 0, 0, 0, 0, 0, 0, 0, 0, 0, 0, 0, 0, 0, 0, 0, 0, 9, 0, 6, 0, 0, 0, 7, 0, 5, 0, 0, 0, 4, 0, 0, 8, 5, 0, 0, 10, 6, 0, 0, 10, 8, 0, 0, 0, 4, 0, 0, 0, 0, 0, 0, 0, 4, 4, 0, 10, 0, 3, 0, 0, 0, 0, 5, 0, 0, 0, 5, 0, 0, 4, 1, 0, 0, 7, 0, 0, 0, 0, 0, 0, 0, 0, 0, 0, 0, 0, 0, 0, 0, 0, 0, 7, 0, 7, 0, 0, 0, 6, 0, 0, 0, 0, 0, 0, 0, 0, 6, 10, 0, 5, 0]);

suc = [
   {2, 3, 4},
   {16, 15},
   {8, 5, 7},
   {6},
   {17, 10, 29},
   {9, 10, 14},
   {13},
   {9, 12},
   {26, 11, 20},
   {16},
   {23},
   {17, 13, 15},
   {18, 23},
   {27, 20, 22},
   {25, 19, 21},
   {25, 31},
   {18, 21, 30},
   {20},
   {24, 26, 29},
   {31},
   {26},
   {24, 28},
   {24, 25, 28},
   {30},
   {30},
   {31},
   {28},
   {29},
   {32},
   {32},
   {32},
   {  } ];

deadline = array2d(1..32, 1..3, [13, 5, 4, 15, 2, 2, 21, 5, 5, 22, 1, 2, 23, 4, 3, 27, 5, 2, 27, 4, 5, 28, 5, 5, 32, 5, 2, 38, 4, 0, 39, 2, 0, 42, 2, 1, 43, 1, 0, 47, 2, 4, 51, 4, 5, 52, 2, 0, 54, 4, 2, 54, 1, 3, 64, 5, 4, 65, 2, 0, 65, 3, 2, 69, 1, 3, 69, 3, 3, 71, 4, 2, 72, 4, 3, 78, 0, 4, 78, 3, 4, 79, 1, 0, 82, 5, 1, 85, 2, 3, 89, 5, 2, 91, 2, 2]);
