n_res = 4;
rc = [ 43, 36, 39, 30 ];
n_tasks = 32;
d = [0, 6, 6, 10, 5, 2, 6, 7, 7, 3, 10, 1, 4, 10, 10, 7, 1, 4, 8, 6, 10, 5, 4, 6, 3, 4, 10, 1, 7, 3, 10, 0];
rr = array2d(1..4, 1..32, [0, 1, 9, 8, 5, 5, 8, 10, 3, 7, 3, 7, 3, 8, 6, 7, 10, 6, 2, 8, 4, 3, 6, 5, 4, 1, 7, 3, 5, 7, 10, 0, 0, 9, 2, 2, 10, 6, 5, 2, 5, 3, 2, 5, 6, 8, 3, 9, 3, 3, 3, 8, 1, 7, 2, 4, 5, 10, 5, 5, 9, 7, 3, 0, 0, 2, 3, 3, 9, 2, 4, 6, 1, 3, 9, 8, 2, 8, 4, 7, 8, 1, 4, 9, 6, 2, 7, 3, 8, 10, 4, 4, 6, 9, 3, 0, 0, 10, 4, 1, 8, 2, 3, 3, 2, 3, 2, 7, 6, 7, 1, 6, 4, 7, 2, 4, 2, 8, 6, 4, 4, 10, 9, 6, 10, 5, 7, 0]);

suc = [
   {2, 3, 4},
   {17, 10, 5},
   {24, 6},
   {13},
   {30},
   {8, 12, 7},
   {14},
   {9, 18, 11},
   {19},
   {15},
   {30},
   {25, 27},
   {29, 23},
   {19},
   {16, 20},
   {23},
   {19, 21, 22},
   {26},
   {23},
   {31},
   {25, 28},
   {25, 27},
   {28},
   {29},
   {30},
   {27},
   {29, 31},
   {31},
   {32},
   {32},
   {32},
   {  } ];

deadline = array2d(1..32, 1..3, [4, 2, 0, 6, 5, 0, 7, 1, 0, 14, 2, 2, 21, 1, 0, 22, 5, 2, 23, 2, 1, 31, 2, 3, 32, 0, 4, 33, 2, 5, 34, 2, 0, 37, 4, 3, 44, 1, 0, 50, 1, 0, 51, 3, 3, 56, 4, 1, 64, 0, 1, 68, 4, 2, 73, 1, 2, 76, 3, 5, 78, 1, 0, 79, 2, 4, 86, 1, 2, 87, 2, 1, 87, 3, 2, 87, 2, 4, 89, 4, 3, 105, 0, 0, 107, 4, 0, 114, 1, 3, 115, 0, 3, 117, 3, 5]);
