n_res = 4;
rc = [ 13, 8, 11, 19 ];
n_tasks = 32;
d = [0, 3, 8, 5, 7, 1, 8, 10, 2, 8, 10, 5, 1, 4, 1, 7, 6, 10, 4, 10, 9, 6, 5, 3, 2, 4, 7, 9, 10, 10, 6, 0];
rr = array2d(1..4, 1..32, [0, 0, 2, 0, 4, 0, 0, 0, 0, 1, 0, 0, 2, 0, 0, 0, 0, 10, 0, 0, 0, 0, 0, 0, 0, 1, 0, 6, 10, 4, 0, 0, 0, 0, 0, 0, 0, 0, 0, 0, 1, 0, 0, 1, 0, 5, 0, 2, 0, 0, 0, 0, 7, 0, 0, 2, 0, 0, 0, 0, 0, 0, 1, 0, 0, 7, 0, 0, 0, 8, 9, 0, 0, 0, 0, 0, 0, 0, 0, 0, 3, 0, 0, 3, 0, 8, 0, 0, 0, 0, 3, 0, 0, 0, 0, 0, 0, 0, 0, 9, 0, 0, 0, 7, 0, 0, 7, 0, 0, 0, 1, 0, 0, 0, 6, 0, 0, 0, 10, 0, 4, 0, 0, 0, 0, 0, 0, 0]);

suc = [
   {2, 3, 4},
   {8, 18, 7},
   {16},
   {9, 5, 17},
   {19, 12, 6},
   {11, 29},
   {10, 28, 14},
   {11, 13, 22},
   {18, 15},
   {20},
   {24},
   {26},
   {26},
   {31},
   {26},
   {19, 30, 23},
   {22},
   {25, 21},
   {29},
   {27},
   {27},
   {31},
   {24},
   {31},
   {28},
   {29},
   {30},
   {30},
   {32},
   {32},
   {32},
   {  } ];

deadline = array2d(1..32, 1..3, [1, 1, 1, 5, 3, 1, 6, 5, 3, 9, 3, 1, 10, 4, 1, 14, 1, 3, 17, 4, 4, 22, 1, 2, 25, 2, 5, 26, 3, 0, 27, 4, 4, 42, 1, 0, 46, 0, 5, 48, 2, 0, 50, 5, 0, 56, 5, 1, 59, 4, 1, 59, 5, 2, 63, 2, 4, 69, 0, 5, 70, 0, 4, 73, 0, 0, 74, 4, 4, 82, 3, 5, 84, 4, 5, 87, 2, 3, 102, 2, 3, 103, 0, 3, 104, 3, 3, 104, 5, 1, 105, 5, 0, 112, 1, 1]);
