n_res = 4;
rc = [ 13, 14, 12, 12 ];
n_tasks = 32;
d = [0, 7, 1, 3, 9, 6, 3, 5, 6, 1, 9, 10, 8, 5, 7, 4, 4, 4, 4, 1, 9, 7, 8, 5, 9, 2, 6, 9, 1, 1, 5, 0];
rr = array2d(1..4, 1..32, [0, 7, 0, 3, 0, 7, 4, 5, 0, 7, 0, 0, 6, 2, 8, 0, 0, 0, 0, 0, 9, 2, 0, 10, 0, 0, 6, 7, 9, 0, 10, 0, 0, 8, 2, 0, 6, 0, 0, 8, 4, 0, 8, 0, 2, 8, 1, 7, 1, 6, 3, 10, 7, 0, 0, 5, 8, 5, 0, 0, 0, 0, 0, 0, 0, 0, 1, 0, 6, 0, 10, 0, 8, 0, 4, 0, 1, 7, 0, 0, 0, 5, 0, 0, 7, 0, 1, 0, 7, 6, 0, 1, 0, 0, 0, 0, 0, 0, 0, 0, 8, 0, 0, 0, 2, 0, 0, 6, 6, 4, 0, 9, 3, 5, 8, 0, 1, 0, 0, 0, 9, 3, 0, 0, 2, 2, 0, 0]);

suc = [
   {2, 3, 4},
   {22, 15},
   {13, 18, 5},
   {8, 26, 12},
   {10, 6, 7},
   {9},
   {17, 19},
   {24, 28},
   {19},
   {11, 20},
   {28, 30},
   {14, 15},
   {16, 26, 21},
   {20, 21},
   {16, 21},
   {17, 19, 23},
   {25, 28},
   {27},
   {24},
   {24, 22},
   {23},
   {25, 23},
   {27},
   {29, 31},
   {27, 30},
   {30},
   {29, 31},
   {29, 31},
   {32},
   {32},
   {32},
   {  } ];

deadline = array2d(1..32, 1..3, [2, 1, 1, 6, 2, 3, 12, 4, 2, 12, 5, 5, 18, 5, 5, 29, 3, 4, 29, 4, 0, 30, 4, 5, 32, 1, 1, 32, 3, 2, 38, 0, 5, 43, 3, 4, 44, 4, 0, 47, 3, 2, 48, 2, 0, 71, 0, 5, 71, 2, 2, 73, 2, 2, 74, 1, 3, 76, 4, 4, 76, 1, 0, 77, 4, 3, 83, 3, 3, 85, 2, 3, 92, 3, 0, 98, 4, 1, 100, 4, 3, 101, 1, 0, 105, 1, 4, 113, 3, 2, 115, 0, 1, 118, 5, 0]);
