n_res = 4;
rc = [ 15, 12, 12, 11 ];
n_tasks = 32;
d = [0, 4, 2, 8, 1, 8, 4, 10, 10, 8, 3, 10, 1, 3, 2, 5, 6, 4, 1, 4, 2, 2, 6, 7, 5, 5, 5, 4, 10, 3, 3, 0];
rr = array2d(1..4, 1..32, [0, 0, 5, 0, 3, 0, 0, 9, 8, 4, 0, 5, 8, 9, 2, 10, 9, 6, 0, 0, 0, 0, 10, 0, 0, 10, 7, 0, 6, 0, 0, 0, 0, 5, 0, 0, 5, 0, 0, 0, 1, 0, 0, 8, 5, 0, 3, 0, 0, 9, 0, 1, 4, 0, 6, 10, 2, 0, 0, 8, 0, 0, 5, 0, 0, 5, 2, 4, 10, 1, 0, 10, 0, 0, 0, 9, 0, 7, 2, 0, 5, 0, 3, 0, 0, 6, 0, 0, 7, 0, 2, 0, 0, 9, 0, 0, 0, 4, 0, 0, 3, 2, 2, 5, 6, 0, 2, 0, 0, 5, 0, 0, 8, 0, 1, 1, 1, 0, 0, 0, 0, 3, 0, 7, 8, 10, 0, 0]);

suc = [
   {2, 3, 4},
   {24, 20, 6},
   {11},
   {19, 5, 23},
   {9},
   {8, 12, 7},
   {9, 10, 13},
   {30, 15},
   {17, 14},
   {29, 21},
   {24},
   {23},
   {21, 14},
   {16, 28, 31},
   {16, 28},
   {22},
   {25, 18, 22},
   {26},
   {24, 20, 22},
   {25, 26, 21},
   {30, 31},
   {29},
   {27},
   {25, 26, 31},
   {27, 30},
   {27},
   {28},
   {29},
   {32},
   {32},
   {32},
   {  } ];

deadline = array2d(1..32, 1..3, [2, 5, 4, 6, 2, 2, 15, 4, 4, 15, 3, 4, 18, 5, 3, 22, 5, 5, 23, 2, 0, 33, 0, 0, 34, 2, 2, 35, 2, 2, 36, 1, 3, 40, 0, 3, 53, 0, 1, 55, 2, 5, 57, 4, 1, 68, 5, 5, 71, 2, 4, 88, 5, 4, 91, 5, 3, 91, 4, 4, 95, 0, 0, 103, 4, 4, 105, 1, 3, 109, 1, 1, 117, 2, 5, 118, 0, 5, 119, 3, 3, 121, 1, 2, 125, 5, 0, 127, 0, 0, 130, 0, 3, 141, 2, 0]);
