n_res = 4;
rc = [ 42, 37, 43, 48 ];
n_tasks = 32;
d = [0, 1, 4, 2, 2, 5, 6, 4, 10, 7, 7, 9, 5, 3, 2, 3, 5, 3, 3, 5, 1, 5, 6, 9, 3, 8, 3, 2, 4, 8, 9, 0];
rr = array2d(1..4, 1..32, [0, 2, 6, 5, 10, 3, 4, 1, 4, 1, 4, 7, 8, 7, 10, 2, 3, 4, 10, 7, 8, 5, 10, 1, 10, 6, 8, 4, 1, 8, 5, 0, 0, 5, 7, 8, 5, 7, 1, 4, 1, 7, 6, 2, 9, 6, 5, 2, 7, 10, 2, 2, 8, 7, 7, 10, 1, 3, 2, 7, 2, 3, 8, 0, 0, 2, 6, 7, 4, 7, 2, 3, 3, 1, 10, 7, 9, 3, 2, 1, 9, 6, 5, 6, 6, 1, 1, 1, 6, 8, 4, 1, 8, 2, 8, 0, 0, 8, 9, 3, 3, 4, 4, 8, 7, 4, 4, 3, 10, 9, 2, 1, 8, 3, 2, 3, 4, 10, 3, 2, 4, 10, 8, 3, 9, 3, 10, 0]);

suc = [
   {2, 3, 4},
   {20, 12, 5},
   {16, 11},
   {9, 11, 13},
   {8, 6, 7},
   {19},
   {24, 14, 23},
   {10, 11},
   {16, 30, 15},
   {17},
   {17},
   {24, 25, 21},
   {18, 22},
   {29},
   {19},
   {17, 31},
   {26, 18, 19},
   {21},
   {29},
   {21, 22},
   {28},
   {24, 23},
   {25, 27},
   {26, 27, 30},
   {26, 31},
   {28},
   {28, 31},
   {29},
   {32},
   {32},
   {32},
   {  } ];

deadline = array2d(1..32, 1..3, [2, 3, 3, 3, 2, 1, 4, 3, 0, 5, 1, 4, 6, 1, 1, 7, 4, 2, 9, 4, 0, 9, 0, 2, 11, 0, 2, 17, 5, 1, 20, 0, 0, 23, 4, 2, 26, 2, 2, 27, 3, 5, 29, 5, 1, 34, 2, 4, 42, 1, 0, 43, 4, 0, 50, 2, 5, 50, 4, 4, 50, 3, 4, 54, 4, 4, 56, 4, 5, 60, 1, 1, 61, 5, 1, 66, 2, 0, 69, 2, 4, 73, 3, 1, 76, 5, 1, 79, 0, 0, 80, 1, 2, 84, 3, 0]);
