n_res = 4;
rc = [ 25, 12, 23, 23 ];
n_tasks = 32;
d = [0, 9, 10, 9, 9, 2, 6, 10, 10, 3, 10, 9, 4, 8, 2, 3, 9, 1, 6, 8, 2, 8, 3, 7, 3, 10, 8, 1, 2, 5, 6, 0];
rr = array2d(1..4, 1..32, [0, 10, 0, 0, 5, 0, 0, 5, 8, 0, 4, 4, 0, 5, 10, 0, 2, 2, 9, 7, 0, 10, 5, 10, 6, 4, 0, 6, 5, 0, 2, 0, 0, 0, 6, 7, 2, 0, 1, 0, 0, 8, 0, 0, 0, 2, 4, 0, 0, 10, 6, 0, 4, 1, 0, 2, 0, 1, 8, 0, 0, 9, 0, 0, 0, 0, 3, 0, 5, 6, 0, 8, 3, 3, 7, 0, 0, 8, 0, 0, 0, 0, 0, 0, 10, 0, 0, 0, 7, 0, 0, 9, 0, 0, 3, 0, 0, 0, 0, 0, 0, 3, 7, 0, 0, 6, 10, 0, 10, 0, 0, 8, 3, 7, 0, 0, 0, 0, 2, 0, 6, 7, 7, 6, 0, 8, 0, 0]);

suc = [
   {2, 3, 4},
   {16, 13, 5},
   {9, 6, 22},
   {8, 9, 5},
   {18, 11},
   {8, 12, 7},
   {10, 11, 14},
   {16, 13, 15},
   {21},
   {18, 13, 23},
   {19, 31, 23},
   {20, 30},
   {17, 19, 28},
   {17, 18, 23},
   {17, 19, 31},
   {24, 26, 28},
   {26, 20, 21},
   {25, 27, 28},
   {26, 20, 21},
   {24},
   {25},
   {29},
   {24, 30},
   {25, 27},
   {29},
   {27, 30},
   {29},
   {31},
   {32},
   {32},
   {32},
   {  } ];

deadline = array2d(1..32, 1..3, [9, 0, 1, 13, 1, 5, 22, 4, 0, 37, 0, 1, 38, 2, 5, 41, 1, 0, 46, 1, 4, 48, 3, 0, 50, 3, 3, 51, 1, 5, 54, 1, 5, 57, 5, 0, 60, 1, 5, 65, 3, 3, 66, 3, 4, 71, 0, 1, 74, 5, 1, 75, 2, 1, 79, 4, 1, 80, 3, 2, 81, 4, 2, 88, 1, 1, 109, 0, 2, 110, 4, 3, 111, 0, 5, 112, 3, 4, 118, 4, 2, 119, 4, 2, 137, 2, 5, 144, 4, 1, 144, 5, 5, 146, 1, 2]);
