n_res = 4;
rc = [ 19, 26, 26, 25 ];
n_tasks = 32;
d = [0, 4, 8, 3, 1, 3, 8, 4, 4, 1, 8, 10, 9, 10, 5, 9, 6, 3, 2, 7, 10, 4, 6, 10, 8, 3, 6, 5, 8, 7, 2, 0];
rr = array2d(1..4, 1..32, [0, 0, 0, 4, 0, 0, 0, 6, 5, 0, 0, 0, 0, 0, 0, 0, 3, 4, 4, 0, 0, 0, 8, 7, 0, 2, 2, 0, 0, 0, 9, 0, 0, 6, 3, 0, 1, 1, 0, 3, 0, 7, 0, 5, 0, 0, 9, 0, 0, 9, 7, 1, 5, 0, 5, 7, 0, 0, 2, 5, 9, 0, 0, 0, 0, 0, 0, 1, 6, 0, 3, 0, 0, 0, 4, 5, 0, 3, 0, 2, 8, 5, 0, 0, 9, 5, 5, 5, 7, 0, 0, 0, 6, 0, 0, 0, 0, 5, 0, 8, 0, 8, 0, 10, 9, 3, 0, 0, 5, 0, 8, 0, 1, 0, 4, 8, 6, 8, 0, 0, 2, 4, 2, 5, 0, 8, 0, 0]);

suc = [
   {2, 3, 4},
   {17, 27},
   {8, 6, 7},
   {25, 27, 5},
   {18, 21},
   {16, 9, 22},
   {9, 12, 15},
   {24, 10, 14},
   {11, 13, 14},
   {12, 15},
   {20, 30},
   {27, 18, 19},
   {19},
   {18},
   {16, 20},
   {26},
   {26, 20, 21},
   {28, 30},
   {29},
   {28},
   {23},
   {24, 25},
   {24},
   {28},
   {26, 30},
   {29, 31},
   {29},
   {31},
   {32},
   {32},
   {32},
   {  } ];

deadline = array2d(1..32, 1..3, [4, 1, 3, 9, 1, 1, 11, 3, 5, 17, 0, 3, 20, 2, 0, 22, 0, 0, 26, 3, 5, 26, 4, 3, 27, 2, 5, 28, 2, 0, 29, 4, 5, 31, 5, 3, 32, 2, 4, 35, 5, 2, 41, 0, 0, 42, 2, 1, 45, 0, 5, 48, 2, 2, 51, 3, 1, 52, 0, 4, 54, 5, 1, 55, 5, 2, 62, 2, 0, 64, 3, 2, 70, 2, 2, 71, 0, 4, 75, 0, 0, 80, 4, 0, 80, 3, 5, 93, 2, 3, 104, 2, 1, 106, 1, 3]);
