n_res = 4;
rc = [ 15, 16, 14, 10 ];
n_tasks = 32;
d = [0, 1, 2, 7, 7, 4, 3, 2, 5, 8, 10, 6, 7, 8, 9, 7, 6, 9, 4, 1, 3, 5, 3, 2, 4, 1, 9, 6, 3, 1, 6, 0];
rr = array2d(1..4, 1..32, [0, 0, 0, 0, 8, 0, 5, 0, 0, 0, 8, 0, 1, 0, 0, 0, 3, 0, 0, 9, 0, 0, 10, 0, 0, 0, 0, 8, 0, 0, 0, 0, 0, 0, 0, 0, 0, 0, 0, 0, 0, 4, 0, 0, 0, 0, 0, 0, 0, 0, 0, 0, 1, 0, 0, 8, 0, 0, 10, 0, 0, 0, 3, 0, 0, 0, 5, 10, 0, 3, 0, 2, 0, 0, 0, 1, 0, 0, 10, 2, 0, 6, 0, 0, 0, 0, 0, 0, 9, 8, 0, 0, 0, 6, 0, 0, 0, 2, 0, 0, 0, 0, 0, 0, 3, 0, 0, 0, 0, 6, 0, 0, 0, 0, 10, 0, 0, 4, 0, 0, 0, 0, 0, 0, 3, 0, 0, 0]);

suc = [
   {2, 3, 4},
   {25, 19, 12},
   {10, 5},
   {8, 9, 15},
   {16, 19, 6},
   {17, 11, 7},
   {27, 20, 13},
   {16, 28, 13},
   {17, 10, 14},
   {11, 12, 20},
   {18, 13, 22},
   {16, 22, 30},
   {21, 30},
   {25, 18, 19},
   {17, 26, 21},
   {29, 31},
   {24, 20, 29},
   {26, 21, 23},
   {26, 22, 23},
   {25},
   {24},
   {24, 28},
   {27},
   {31},
   {30},
   {27},
   {28, 31},
   {29},
   {32},
   {32},
   {32},
   {  } ];

deadline = array2d(1..32, 1..3, [8, 5, 5, 21, 1, 3, 33, 1, 5, 36, 5, 4, 38, 5, 1, 38, 0, 3, 42, 4, 1, 48, 1, 3, 56, 1, 5, 59, 2, 5, 60, 1, 5, 61, 3, 5, 69, 2, 5, 77, 5, 1, 77, 0, 2, 78, 2, 5, 83, 2, 5, 91, 3, 2, 101, 5, 5, 103, 5, 2, 109, 3, 3, 112, 4, 1, 114, 2, 4, 118, 5, 4, 122, 4, 0, 123, 5, 1, 129, 2, 3, 129, 3, 4, 130, 3, 0, 136, 3, 4, 137, 4, 3, 137, 4, 4]);
