n_res = 4;
rc = [ 19, 17, 20, 19 ];
n_tasks = 32;
d = [0, 7, 10, 7, 9, 2, 3, 8, 2, 3, 6, 8, 9, 2, 3, 8, 6, 9, 8, 1, 2, 7, 10, 1, 1, 5, 7, 6, 3, 5, 1, 0];
rr = array2d(1..4, 1..32, [0, 3, 9, 9, 3, 4, 7, 7, 2, 7, 3, 10, 2, 7, 4, 1, 10, 1, 7, 5, 9, 9, 6, 3, 3, 3, 2, 10, 9, 5, 8, 0, 0, 8, 9, 4, 1, 9, 4, 1, 6, 10, 9, 6, 10, 5, 8, 6, 5, 8, 6, 7, 1, 1, 6, 8, 8, 6, 4, 5, 1, 7, 3, 0, 0, 4, 9, 4, 8, 9, 9, 5, 2, 8, 7, 9, 9, 5, 6, 2, 9, 3, 5, 5, 9, 8, 8, 1, 9, 9, 2, 9, 4, 2, 1, 0, 0, 4, 8, 2, 1, 6, 6, 9, 5, 7, 1, 10, 8, 4, 2, 8, 2, 6, 2, 8, 7, 6, 5, 3, 4, 8, 5, 1, 7, 2, 9, 0]);

suc = [
   {2, 3, 4},
   {9, 5, 15},
   {8, 10},
   {22, 6, 7},
   {16, 18, 26},
   {24},
   {17, 13, 14},
   {25, 11},
   {12},
   {18},
   {19},
   {20, 31},
   {25},
   {19, 15},
   {29, 23},
   {24},
   {29},
   {27},
   {21, 30},
   {24},
   {27, 28},
   {26},
   {30},
   {27},
   {30},
   {28},
   {29},
   {31},
   {32},
   {32},
   {32},
   {  } ];

deadline = array2d(1..32, 1..3, [7, 2, 5, 15, 1, 3, 16, 0, 5, 17, 1, 3, 18, 4, 2, 20, 1, 4, 21, 4, 5, 23, 2, 1, 27, 3, 5, 35, 5, 5, 38, 4, 1, 44, 0, 5, 53, 5, 1, 56, 5, 4, 60, 3, 0, 62, 0, 3, 64, 3, 2, 65, 0, 3, 68, 4, 1, 75, 5, 4, 79, 2, 5, 80, 5, 1, 81, 1, 4, 82, 0, 4, 84, 0, 1, 85, 5, 0, 87, 4, 4, 88, 4, 5, 89, 5, 4, 98, 2, 4, 103, 2, 2, 109, 2, 1]);
