n_res = 4;
rc = [ 13, 11, 11, 10 ];
n_tasks = 32;
d = [0, 4, 7, 8, 5, 7, 5, 1, 1, 4, 10, 2, 8, 7, 1, 5, 2, 3, 1, 1, 7, 4, 7, 8, 7, 4, 7, 4, 5, 7, 7, 0];
rr = array2d(1..4, 1..32, [0, 4, 8, 10, 0, 0, 0, 0, 0, 0, 2, 0, 3, 0, 0, 0, 0, 0, 3, 0, 0, 10, 7, 8, 0, 0, 6, 0, 0, 2, 0, 0, 0, 0, 0, 0, 0, 0, 0, 5, 0, 0, 0, 0, 0, 10, 10, 0, 0, 0, 0, 0, 0, 0, 0, 0, 0, 0, 0, 8, 5, 0, 0, 0, 0, 0, 0, 0, 0, 6, 0, 0, 0, 2, 0, 10, 0, 0, 0, 1, 6, 7, 0, 5, 3, 0, 0, 0, 10, 0, 0, 0, 0, 0, 6, 0, 0, 0, 0, 0, 8, 0, 1, 0, 1, 0, 0, 0, 0, 0, 0, 0, 0, 0, 0, 0, 0, 0, 0, 0, 0, 10, 0, 0, 0, 0, 0, 0]);

suc = [
   {2, 3, 4},
   {11, 13, 6},
   {16, 5, 7},
   {9, 13, 5},
   {12, 21, 14},
   {17, 10, 26},
   {8, 13, 23},
   {12, 30, 15},
   {16, 19, 14},
   {16, 24, 14},
   {26, 27, 12},
   {17, 20},
   {24, 17, 15},
   {25, 18, 15},
   {29, 22},
   {25, 29, 23},
   {22},
   {20},
   {25, 26, 21},
   {29},
   {24, 22, 23},
   {31},
   {28, 31},
   {27, 28},
   {27, 30},
   {28},
   {31},
   {30},
   {32},
   {32},
   {32},
   {  } ];

deadline = array2d(1..32, 1..3, [7, 4, 5, 7, 5, 5, 9, 2, 4, 10, 3, 2, 10, 2, 0, 13, 1, 5, 21, 2, 3, 35, 3, 4, 36, 2, 2, 44, 5, 5, 44, 5, 2, 46, 3, 3, 48, 5, 5, 50, 2, 2, 53, 4, 4, 55, 4, 0, 55, 4, 4, 58, 4, 4, 62, 4, 3, 63, 2, 2, 64, 1, 4, 68, 4, 2, 69, 0, 1, 80, 5, 2, 87, 4, 3, 90, 4, 5, 93, 5, 5, 95, 1, 0, 96, 3, 1, 97, 4, 2, 101, 1, 3, 107, 3, 5]);
