n_res = 4;
rc = [ 25, 25, 29, 23 ];
n_tasks = 62;
d = [0, 2, 2, 5, 5, 2, 4, 3, 3, 10, 7, 6, 10, 7, 8, 3, 8, 6, 6, 4, 9, 1, 10, 3, 6, 5, 7, 7, 5, 10, 9, 7, 2, 9, 6, 7, 3, 7, 2, 6, 8, 4, 10, 7, 2, 8, 9, 6, 7, 8, 3, 5, 3, 8, 4, 3, 4, 10, 1, 5, 1, 0];
rr = array2d(1..4, 1..62, [0, 0, 8, 6, 0, 8, 10, 0, 0, 0, 6, 3, 4, 0, 0, 0, 5, 2, 0, 0, 0, 0, 0, 0, 0, 0, 2, 0, 7, 6, 0, 7, 0, 4, 3, 0, 5, 1, 7, 7, 0, 0, 0, 2, 7, 0, 4, 10, 10, 6, 6, 5, 0, 8, 1, 0, 0, 1, 6, 0, 5, 0, 0, 0, 9, 0, 0, 5, 0, 0, 0, 2, 3, 0, 0, 0, 4, 0, 1, 0, 0, 4, 7, 0, 0, 1, 0, 8, 0, 0, 10, 2, 0, 10, 0, 7, 0, 10, 9, 7, 8, 4, 0, 1, 3, 0, 0, 0, 0, 5, 8, 0, 0, 6, 2, 0, 0, 2, 1, 0, 0, 0, 0, 0, 0, 0, 5, 0, 0, 0, 0, 10, 2, 0, 0, 0, 0, 3, 0, 9, 0, 9, 8, 4, 9, 0, 1, 6, 8, 0, 3, 1, 4, 8, 0, 0, 0, 0, 7, 0, 1, 0, 0, 0, 6, 6, 0, 5, 9, 4, 0, 0, 7, 0, 0, 0, 4, 0, 10, 7, 0, 2, 9, 5, 0, 0, 0, 6, 0, 2, 3, 6, 0, 7, 9, 0, 0, 0, 1, 0, 0, 6, 0, 1, 0, 0, 9, 4, 0, 0, 5, 10, 0, 0, 4, 5, 2, 10, 7, 0, 4, 1, 6, 9, 0, 0, 0, 3, 0, 9, 0, 0, 7, 6, 0, 8, 5, 0, 1, 0, 0, 0, 8, 3, 0, 0, 6, 0]);

suc = [
   {2, 3, 4},
   {17, 29, 14},
   {8, 20, 7},
   {11, 5, 6},
   {18},
   {10},
   {9, 14},
   {33, 22},
   {25, 51, 23},
   {26, 19, 23},
   {32, 49, 12},
   {17, 59, 13},
   {25, 37, 15},
   {56, 52, 21},
   {16, 40, 35},
   {24, 57, 42},
   {50, 28, 31},
   {34, 37, 47},
   {24, 41, 35},
   {50, 28, 22},
   {25, 26, 27},
   {40, 42, 30},
   {24, 49, 28},
   {43, 38},
   {50, 35, 39},
   {36, 38, 44},
   {37, 31},
   {40, 52},
   {33, 43, 36},
   {32, 36, 54},
   {43, 38},
   {41, 44},
   {51, 45, 39},
   {41, 42, 49},
   {61, 46},
   {58},
   {39},
   {48, 45},
   {48, 44, 46},
   {53, 46, 47},
   {51},
   {48},
   {60, 45},
   {57, 55},
   {53, 47},
   {57},
   {54},
   {53},
   {56, 59, 52},
   {55},
   {56, 59},
   {60},
   {54, 55},
   {61},
   {61},
   {58},
   {58},
   {60},
   {62},
   {62},
   {62},
   {  } ];

deadline = array2d(1..62, 1..3, [4, 5, 4, 10, 1, 1, 16, 0, 1, 19, 0, 3, 22, 5, 2, 26, 5, 0, 27, 5, 4, 27, 3, 0, 28, 1, 2, 29, 4, 5, 30, 2, 3, 32, 0, 5, 33, 5, 5, 40, 5, 3, 41, 2, 0, 42, 5, 4, 43, 2, 5, 49, 2, 4, 54, 2, 5, 55, 5, 0, 55, 4, 1, 56, 2, 0, 56, 2, 1, 59, 4, 0, 63, 2, 0, 65, 5, 1, 76, 0, 0, 77, 5, 1, 78, 3, 2, 83, 5, 3, 84, 4, 4, 85, 4, 4, 87, 0, 5, 91, 3, 3, 98, 3, 2, 100, 2, 5, 102, 0, 5, 103, 4, 5, 103, 3, 1, 107, 2, 3, 109, 4, 4, 110, 4, 2, 113, 4, 2, 113, 2, 0, 114, 1, 1, 116, 2, 4, 117, 1, 3, 122, 4, 5, 123, 0, 1, 123, 4, 1, 124, 1, 0, 127, 2, 1, 133, 1, 2, 134, 2, 4, 135, 2, 2, 155, 3, 2, 157, 0, 3, 158, 5, 5, 164, 0, 2, 169, 0, 3, 178, 1, 4, 179, 1, 4]);
