n_res = 4;
rc = [ 22, 34, 30, 28 ];
n_tasks = 62;
d = [0, 8, 5, 2, 2, 3, 3, 10, 1, 9, 6, 5, 10, 1, 2, 5, 9, 5, 2, 7, 6, 6, 7, 3, 4, 7, 9, 6, 1, 1, 2, 3, 3, 8, 8, 1, 6, 3, 3, 4, 6, 2, 10, 9, 6, 7, 10, 3, 7, 9, 9, 9, 3, 1, 2, 4, 6, 10, 4, 8, 10, 0];
rr = array2d(1..4, 1..62, [0, 8, 4, 0, 0, 1, 0, 0, 0, 0, 0, 3, 0, 0, 6, 7, 0, 0, 0, 3, 0, 0, 0, 8, 8, 0, 0, 0, 0, 0, 0, 0, 0, 0, 0, 0, 0, 0, 0, 0, 0, 1, 0, 0, 0, 6, 8, 6, 0, 0, 0, 0, 0, 0, 0, 3, 0, 0, 0, 0, 0, 0, 0, 0, 0, 0, 0, 0, 0, 0, 0, 0, 0, 0, 0, 0, 0, 0, 0, 0, 0, 0, 0, 0, 10, 0, 0, 9, 0, 0, 0, 0, 0, 2, 0, 2, 0, 0, 0, 6, 8, 0, 0, 0, 0, 0, 0, 0, 0, 0, 7, 0, 0, 4, 9, 1, 0, 0, 4, 9, 8, 0, 0, 0, 0, 0, 0, 0, 0, 0, 3, 0, 0, 4, 9, 0, 10, 0, 0, 0, 3, 3, 0, 0, 0, 0, 0, 0, 0, 0, 0, 0, 0, 9, 0, 0, 0, 0, 4, 0, 3, 0, 0, 9, 0, 0, 0, 0, 6, 0, 0, 0, 0, 4, 0, 0, 0, 0, 8, 0, 0, 0, 0, 8, 2, 0, 0, 0, 0, 5, 9, 0, 0, 5, 9, 0, 0, 0, 0, 4, 0, 0, 0, 0, 4, 0, 10, 6, 0, 0, 0, 0, 2, 5, 5, 0, 4, 0, 9, 0, 0, 10, 0, 0, 0, 0, 1, 0, 3, 3, 0, 0, 0, 0, 0, 0, 9, 0, 0, 0, 0, 0, 0, 0, 0, 0, 0, 0]);

suc = [
   {2, 3, 4},
   {9},
   {16, 10, 7},
   {50, 5},
   {58, 12, 6},
   {8, 27, 13},
   {11, 46, 15},
   {51, 19},
   {39},
   {45},
   {14, 23},
   {18, 20, 53},
   {40, 38},
   {25, 21},
   {37},
   {17},
   {18},
   {22},
   {24, 26},
   {48, 29},
   {30, 31},
   {47},
   {56},
   {56, 36},
   {48, 52},
   {52},
   {57, 35, 28},
   {34},
   {54},
   {45},
   {32, 35},
   {33, 55},
   {41, 37},
   {43, 61},
   {48},
   {44},
   {60, 39},
   {54},
   {42},
   {60},
   {42},
   {47},
   {49},
   {49, 53, 55},
   {56},
   {58},
   {61},
   {49},
   {60},
   {53, 54},
   {52},
   {57},
   {57},
   {55},
   {59},
   {59},
   {61},
   {59},
   {62},
   {62},
   {62},
   {  } ];

deadline = array2d(1..62, 1..3, [3, 5, 1, 3, 5, 4, 4, 1, 2, 5, 1, 0, 14, 1, 2, 20, 3, 3, 20, 2, 5, 22, 2, 1, 25, 4, 3, 28, 5, 1, 28, 2, 0, 30, 2, 0, 31, 4, 4, 32, 2, 4, 33, 3, 5, 35, 1, 1, 36, 0, 5, 41, 5, 1, 41, 3, 5, 43, 3, 0, 44, 5, 1, 46, 0, 5, 52, 2, 5, 56, 0, 5, 58, 2, 0, 61, 1, 3, 63, 5, 4, 65, 0, 4, 68, 2, 1, 68, 0, 2, 70, 0, 1, 70, 2, 0, 75, 4, 1, 80, 4, 3, 80, 1, 5, 82, 4, 1, 83, 3, 3, 90, 3, 1, 92, 1, 4, 93, 2, 3, 93, 4, 0, 95, 1, 3, 95, 4, 2, 97, 2, 3, 98, 1, 3, 100, 2, 3, 100, 5, 5, 107, 2, 5, 112, 1, 5, 113, 1, 4, 116, 1, 4, 117, 3, 4, 118, 0, 1, 129, 4, 5, 129, 4, 0, 132, 5, 5, 134, 0, 3, 135, 1, 5, 136, 5, 5, 137, 1, 4, 140, 3, 0, 148, 2, 5]);
