n_res = 4;
rc = [ 41, 49, 43, 48 ];
n_tasks = 62;
d = [0, 8, 7, 7, 10, 2, 10, 2, 5, 6, 6, 3, 7, 8, 7, 10, 9, 10, 1, 6, 6, 3, 6, 7, 4, 7, 5, 10, 4, 10, 8, 9, 6, 9, 3, 3, 1, 1, 5, 4, 5, 4, 7, 3, 1, 10, 1, 4, 10, 1, 5, 6, 6, 5, 8, 5, 1, 6, 7, 3, 1, 0];
rr = array2d(1..4, 1..62, [0, 7, 1, 9, 10, 10, 2, 4, 2, 2, 1, 9, 6, 7, 8, 1, 6, 6, 10, 1, 1, 5, 10, 7, 6, 10, 2, 8, 9, 1, 1, 1, 3, 5, 7, 8, 6, 4, 3, 7, 2, 10, 6, 1, 4, 7, 1, 7, 4, 2, 4, 6, 1, 2, 7, 1, 4, 5, 3, 5, 5, 0, 0, 6, 7, 2, 10, 4, 7, 8, 7, 6, 7, 2, 10, 10, 8, 6, 2, 9, 3, 4, 9, 7, 1, 5, 6, 7, 9, 6, 6, 9, 6, 8, 4, 6, 7, 9, 5, 8, 9, 10, 8, 6, 2, 3, 4, 3, 9, 7, 9, 1, 2, 10, 5, 7, 8, 5, 1, 6, 2, 6, 1, 0, 0, 3, 3, 8, 4, 8, 3, 6, 10, 10, 2, 6, 3, 5, 6, 7, 4, 6, 3, 5, 10, 2, 6, 2, 3, 7, 5, 7, 5, 1, 9, 4, 2, 5, 10, 5, 8, 5, 4, 1, 1, 2, 4, 5, 5, 10, 9, 1, 2, 2, 3, 10, 10, 5, 1, 9, 3, 9, 3, 4, 5, 0, 0, 6, 9, 5, 4, 1, 1, 9, 1, 7, 6, 4, 6, 6, 10, 6, 2, 9, 5, 10, 1, 6, 1, 6, 3, 2, 8, 7, 7, 7, 8, 5, 4, 5, 8, 8, 7, 6, 8, 8, 4, 2, 6, 1, 5, 6, 8, 4, 1, 2, 9, 2, 1, 2, 7, 9, 4, 6, 9, 5, 6, 0]);

suc = [
   {2, 3, 4},
   {5, 6},
   {42, 14, 15},
   {31, 7},
   {8, 9, 10},
   {24, 11, 37},
   {14},
   {33, 12, 23},
   {38},
   {43, 19},
   {49, 50},
   {13, 22},
   {18, 36},
   {16, 17, 21},
   {41},
   {51},
   {54},
   {30, 47},
   {26, 20, 29},
   {39},
   {51, 55},
   {34, 61},
   {28},
   {25, 27, 36},
   {55},
   {35, 60, 53},
   {31},
   {34, 29},
   {45},
   {32},
   {43},
   {45},
   {56},
   {46},
   {40, 44},
   {38, 39},
   {47},
   {57},
   {41},
   {46},
   {52},
   {54},
   {47},
   {52},
   {48, 51},
   {56},
   {59},
   {54},
   {57},
   {58},
   {52, 53},
   {57},
   {58},
   {56},
   {58},
   {59},
   {61},
   {59},
   {62},
   {62},
   {62},
   {  } ];

deadline = array2d(1..62, 1..3, [3, 0, 4, 4, 3, 5, 8, 2, 0, 11, 1, 2, 13, 0, 2, 13, 5, 0, 17, 5, 3, 19, 1, 3, 19, 3, 1, 23, 2, 2, 35, 1, 4, 37, 2, 5, 44, 3, 3, 44, 4, 2, 51, 2, 1, 54, 5, 1, 56, 3, 2, 59, 1, 0, 60, 3, 5, 67, 5, 2, 69, 1, 5, 69, 5, 4, 83, 4, 5, 86, 2, 0, 87, 4, 0, 90, 0, 0, 92, 0, 3, 93, 3, 0, 95, 4, 2, 98, 4, 5, 100, 3, 1, 110, 3, 5, 112, 2, 0, 116, 1, 3, 117, 0, 0, 121, 2, 4, 129, 3, 4, 134, 3, 3, 134, 1, 3, 137, 0, 0, 138, 0, 3, 139, 2, 2, 142, 1, 4, 143, 0, 1, 154, 1, 3, 154, 2, 5, 155, 2, 1, 166, 1, 3, 167, 2, 2, 178, 5, 2, 179, 2, 2, 179, 2, 3, 181, 0, 3, 186, 3, 1, 187, 0, 5, 188, 0, 0, 189, 0, 2, 193, 1, 4, 196, 4, 3, 203, 2, 4, 207, 3, 5, 208, 3, 3]);
