n_res = 4;
rc = [ 46, 44, 42, 42 ];
n_tasks = 62;
d = [0, 10, 1, 8, 8, 3, 3, 10, 7, 10, 3, 9, 6, 9, 7, 6, 5, 1, 5, 2, 8, 4, 5, 10, 4, 9, 4, 3, 10, 7, 6, 5, 2, 5, 8, 10, 1, 3, 10, 8, 2, 1, 10, 5, 7, 4, 4, 3, 10, 2, 3, 7, 10, 7, 2, 3, 8, 6, 10, 7, 1, 0];
rr = array2d(1..4, 1..62, [0, 0, 7, 8, 8, 8, 10, 6, 0, 0, 3, 9, 9, 9, 9, 0, 7, 8, 0, 0, 9, 0, 7, 0, 10, 4, 8, 7, 0, 9, 0, 0, 10, 0, 10, 0, 4, 6, 8, 0, 0, 0, 4, 3, 2, 0, 6, 0, 2, 5, 10, 4, 1, 6, 0, 5, 9, 0, 4, 2, 0, 0, 0, 3, 2, 0, 7, 0, 4, 10, 0, 10, 9, 10, 0, 2, 1, 9, 7, 0, 0, 0, 7, 10, 0, 9, 7, 7, 3, 8, 7, 6, 6, 3, 1, 4, 0, 1, 8, 4, 2, 1, 10, 1, 2, 10, 0, 0, 4, 8, 0, 3, 9, 6, 10, 1, 10, 3, 8, 0, 9, 7, 6, 0, 0, 9, 2, 6, 2, 0, 7, 1, 1, 10, 1, 1, 3, 9, 5, 1, 9, 6, 8, 2, 10, 10, 3, 10, 4, 8, 0, 9, 8, 9, 6, 5, 8, 3, 6, 6, 0, 2, 0, 4, 0, 7, 2, 2, 0, 10, 4, 4, 0, 8, 2, 0, 6, 4, 4, 0, 4, 5, 6, 10, 5, 0, 0, 5, 5, 6, 1, 0, 1, 7, 4, 2, 10, 9, 2, 5, 10, 0, 2, 4, 0, 5, 0, 1, 0, 6, 4, 0, 2, 7, 0, 6, 2, 4, 3, 6, 9, 0, 7, 1, 0, 4, 0, 0, 0, 0, 2, 9, 10, 0, 10, 9, 0, 10, 4, 10, 7, 10, 4, 0, 6, 5, 7, 0]);

suc = [
   {2, 3, 4},
   {20, 5, 7},
   {28, 6, 23},
   {24, 9, 27},
   {18, 11, 12},
   {17, 10, 26},
   {8, 16, 14},
   {25, 53, 13},
   {32, 51, 29},
   {45, 22, 15},
   {37, 22, 47},
   {35, 19, 31},
   {24, 23},
   {27, 28},
   {16, 61, 31},
   {48, 37, 38},
   {41, 27, 46},
   {34, 51, 38},
   {23},
   {32, 21, 30},
   {25, 35, 36},
   {48, 33, 43},
   {40, 33, 43},
   {26, 34, 39},
   {33, 26, 39},
   {40, 54, 38},
   {45},
   {34, 58, 39},
   {41, 43, 55},
   {35, 36, 31},
   {60, 47},
   {49, 44},
   {57, 55},
   {42, 37, 54},
   {49, 50, 44},
   {54, 41, 46},
   {60},
   {60},
   {40, 59},
   {42, 51},
   {57},
   {46},
   {50, 52},
   {52, 45},
   {53, 47},
   {50},
   {48},
   {59},
   {52, 53},
   {56},
   {56},
   {57},
   {56, 55},
   {59},
   {58},
   {61},
   {58},
   {61},
   {62},
   {62},
   {62},
   {  } ];

deadline = array2d(1..62, 1..3, [2, 0, 5, 4, 0, 3, 5, 3, 2, 7, 3, 0, 10, 4, 2, 18, 2, 1, 24, 0, 4, 29, 4, 3, 31, 4, 4, 31, 4, 3, 34, 3, 4, 35, 4, 5, 35, 5, 0, 37, 4, 2, 42, 5, 0, 42, 3, 4, 44, 5, 2, 48, 1, 5, 49, 1, 5, 52, 2, 3, 65, 5, 3, 67, 0, 0, 70, 0, 5, 71, 3, 3, 77, 1, 5, 77, 5, 1, 77, 2, 5, 78, 3, 3, 81, 1, 5, 86, 1, 4, 88, 5, 0, 100, 1, 0, 102, 4, 5, 104, 5, 5, 105, 2, 2, 112, 2, 4, 115, 3, 3, 116, 1, 2, 116, 2, 4, 121, 1, 0, 122, 0, 4, 128, 3, 5, 132, 5, 4, 134, 4, 4, 134, 4, 2, 135, 2, 1, 135, 0, 0, 140, 4, 3, 143, 1, 5, 145, 1, 5, 148, 3, 0, 149, 2, 3, 153, 0, 2, 156, 0, 1, 157, 4, 5, 160, 4, 2, 160, 5, 1, 162, 0, 4, 165, 3, 2, 165, 0, 1, 172, 2, 1, 172, 2, 2]);
