n_res = 4;
rc = [ 22, 23, 28, 26 ];
n_tasks = 62;
d = [0, 9, 1, 1, 6, 9, 4, 10, 8, 1, 9, 4, 8, 4, 8, 6, 7, 8, 2, 2, 5, 5, 7, 3, 9, 3, 1, 10, 3, 10, 1, 3, 3, 7, 5, 10, 4, 8, 6, 6, 3, 2, 1, 5, 10, 7, 4, 4, 10, 5, 7, 5, 8, 8, 9, 1, 6, 8, 9, 9, 8, 0];
rr = array2d(1..4, 1..62, [0, 2, 5, 0, 0, 10, 0, 10, 0, 0, 0, 0, 0, 0, 0, 0, 0, 0, 0, 0, 0, 0, 0, 0, 0, 0, 0, 0, 0, 0, 0, 0, 10, 0, 0, 10, 7, 4, 0, 0, 0, 2, 0, 0, 0, 0, 0, 0, 8, 0, 0, 0, 0, 4, 0, 0, 0, 0, 0, 0, 0, 0, 0, 0, 0, 9, 0, 0, 8, 0, 8, 1, 0, 5, 5, 0, 0, 0, 0, 0, 0, 5, 0, 7, 0, 3, 4, 0, 0, 2, 0, 0, 1, 0, 0, 0, 0, 0, 0, 0, 0, 10, 0, 0, 0, 0, 0, 4, 1, 0, 0, 0, 0, 0, 9, 0, 0, 0, 0, 0, 0, 0, 0, 0, 0, 0, 0, 0, 0, 0, 0, 0, 0, 0, 0, 0, 0, 1, 0, 0, 10, 0, 2, 0, 8, 0, 10, 0, 0, 0, 4, 0, 0, 4, 0, 7, 0, 8, 0, 0, 0, 0, 4, 0, 0, 0, 7, 5, 0, 0, 0, 8, 0, 3, 6, 0, 0, 0, 0, 9, 10, 4, 0, 5, 0, 0, 0, 0, 0, 0, 8, 0, 0, 0, 0, 0, 1, 0, 0, 0, 6, 9, 0, 6, 0, 0, 0, 0, 0, 0, 0, 6, 0, 0, 3, 0, 0, 0, 0, 0, 9, 0, 0, 0, 0, 0, 9, 0, 0, 0, 4, 0, 0, 0, 0, 0, 0, 8, 0, 0, 7, 0, 0, 0, 6, 0, 2, 0]);

suc = [
   {2, 3, 4},
   {52},
   {35, 23, 15},
   {16, 5, 6},
   {11, 14, 7},
   {8, 9, 12},
   {25, 19, 45},
   {26},
   {10, 27},
   {33, 18, 39},
   {42},
   {17, 13},
   {20, 38},
   {15},
   {21},
   {32, 29, 21},
   {41},
   {40, 43},
   {33},
   {37},
   {47, 22, 31},
   {24, 48},
   {46},
   {39},
   {53},
   {28},
   {30},
   {60, 37},
   {41, 49},
   {34, 42},
   {49},
   {46},
   {61},
   {40},
   {36},
   {51},
   {50},
   {53},
   {52},
   {49},
   {42},
   {54},
   {56, 57, 44},
   {50, 46, 55},
   {59},
   {48},
   {54},
   {52, 61},
   {54},
   {58},
   {56},
   {59},
   {57},
   {57},
   {58},
   {58},
   {59, 60},
   {61},
   {62},
   {62},
   {62},
   {  } ];

deadline = array2d(1..62, 1..3, [3, 3, 0, 4, 4, 4, 6, 3, 1, 7, 5, 5, 10, 5, 5, 20, 2, 3, 24, 2, 0, 25, 3, 1, 25, 5, 2, 28, 0, 3, 32, 1, 4, 35, 0, 5, 37, 0, 4, 41, 5, 3, 48, 0, 1, 50, 3, 4, 53, 5, 0, 54, 2, 5, 62, 5, 0, 70, 4, 1, 77, 5, 5, 79, 0, 1, 82, 3, 4, 84, 3, 0, 85, 1, 0, 87, 5, 5, 89, 3, 1, 97, 0, 2, 97, 1, 5, 102, 1, 1, 106, 3, 0, 109, 3, 0, 110, 2, 1, 110, 3, 4, 111, 5, 4, 115, 3, 3, 118, 0, 2, 119, 0, 3, 119, 3, 2, 120, 5, 2, 120, 4, 3, 123, 5, 1, 128, 3, 5, 130, 0, 0, 133, 2, 0, 134, 2, 1, 134, 1, 5, 141, 1, 2, 146, 3, 2, 146, 3, 5, 148, 0, 2, 148, 4, 4, 150, 4, 0, 153, 1, 4, 157, 1, 2, 158, 4, 2, 159, 3, 1, 163, 4, 2, 173, 4, 1, 177, 4, 5, 178, 5, 3, 183, 5, 0]);
