n_res = 4;
rc = [ 20, 29, 26, 17 ];
n_tasks = 62;
d = [0, 8, 6, 3, 9, 5, 9, 1, 1, 1, 3, 4, 5, 1, 9, 3, 6, 2, 5, 9, 9, 7, 4, 3, 7, 6, 1, 3, 8, 7, 1, 1, 5, 5, 10, 8, 8, 3, 7, 3, 9, 10, 5, 6, 3, 9, 10, 4, 4, 5, 3, 5, 1, 8, 2, 3, 2, 4, 8, 8, 10, 0];
rr = array2d(1..4, 1..62, [0, 5, 0, 0, 0, 0, 1, 0, 0, 0, 0, 0, 10, 3, 0, 0, 0, 0, 2, 0, 0, 6, 0, 0, 0, 2, 2, 0, 0, 0, 0, 0, 0, 0, 0, 0, 7, 0, 0, 7, 0, 0, 8, 0, 0, 0, 0, 0, 0, 0, 0, 0, 0, 2, 0, 0, 1, 0, 0, 4, 0, 0, 0, 0, 0, 0, 0, 0, 0, 0, 10, 0, 6, 0, 0, 0, 5, 4, 0, 0, 0, 0, 5, 0, 0, 5, 0, 0, 0, 5, 0, 0, 0, 9, 9, 0, 2, 8, 0, 0, 0, 0, 0, 0, 0, 0, 0, 4, 9, 0, 0, 10, 3, 10, 0, 0, 0, 0, 0, 0, 0, 0, 0, 0, 0, 0, 0, 9, 7, 8, 0, 0, 0, 0, 0, 0, 0, 0, 0, 0, 2, 6, 0, 3, 0, 0, 7, 0, 3, 0, 0, 0, 3, 0, 3, 0, 0, 0, 0, 0, 0, 9, 0, 0, 5, 0, 0, 2, 0, 0, 0, 5, 0, 0, 0, 0, 0, 0, 0, 9, 0, 10, 0, 0, 1, 0, 0, 0, 3, 0, 0, 0, 0, 10, 0, 8, 0, 5, 0, 0, 0, 0, 0, 0, 0, 0, 0, 0, 0, 0, 0, 0, 0, 0, 0, 1, 0, 0, 0, 8, 0, 0, 0, 0, 9, 0, 0, 7, 0, 0, 8, 0, 0, 0, 8, 0, 0, 0, 9, 0, 5, 0, 0, 0, 2, 0, 0, 0]);

suc = [
   {2, 3, 4},
   {24, 13, 5},
   {8, 42, 6},
   {59, 44, 53},
   {9, 29, 22},
   {19, 12, 7},
   {16, 10, 21},
   {17, 18, 25},
   {23, 28, 15},
   {11, 20, 14},
   {45, 22},
   {15},
   {33, 36},
   {49},
   {26},
   {35, 60},
   {44},
   {46, 30},
   {38},
   {26},
   {50, 30},
   {36},
   {32, 34},
   {30, 47},
   {26, 27},
   {58},
   {50, 52, 31},
   {41, 46},
   {40, 37},
   {48, 56, 39},
   {57, 53, 37},
   {41, 53},
   {41, 35, 47},
   {42, 35, 45},
   {57},
   {48, 38},
   {51},
   {43, 52},
   {43, 52},
   {54, 47},
   {50, 55},
   {46},
   {49},
   {49, 45, 55},
   {48, 60},
   {51},
   {58},
   {54},
   {51},
   {58},
   {61},
   {57, 61},
   {56, 54},
   {61},
   {56},
   {60},
   {59},
   {59},
   {62},
   {62},
   {62},
   {  } ];

deadline = array2d(1..62, 1..3, [2, 1, 0, 3, 5, 4, 6, 0, 2, 7, 0, 3, 7, 2, 3, 8, 1, 4, 14, 2, 5, 15, 1, 4, 18, 0, 0, 18, 2, 0, 19, 2, 1, 22, 3, 2, 24, 1, 0, 25, 1, 5, 25, 5, 4, 30, 3, 3, 46, 0, 1, 50, 1, 5, 52, 2, 5, 55, 5, 2, 59, 2, 2, 59, 3, 0, 60, 0, 2, 62, 4, 2, 64, 4, 5, 75, 1, 4, 76, 2, 2, 79, 5, 4, 83, 1, 3, 84, 0, 0, 85, 4, 0, 88, 2, 1, 96, 4, 2, 96, 3, 0, 100, 0, 2, 104, 2, 2, 105, 5, 2, 106, 5, 1, 111, 0, 2, 112, 1, 5, 113, 4, 5, 113, 4, 2, 115, 2, 4, 118, 0, 4, 119, 1, 0, 121, 3, 2, 122, 5, 4, 124, 3, 0, 128, 5, 1, 128, 4, 0, 132, 5, 0, 137, 5, 1, 138, 1, 4, 140, 2, 4, 144, 1, 1, 144, 5, 0, 149, 4, 3, 153, 5, 3, 155, 1, 3, 155, 2, 2, 156, 2, 0, 158, 5, 1]);
