n_res = 4;
rc = [ 46, 51, 52, 42 ];
n_tasks = 62;
d = [0, 2, 2, 5, 9, 4, 8, 3, 6, 4, 8, 8, 5, 9, 5, 4, 4, 9, 2, 9, 10, 9, 5, 7, 10, 8, 6, 7, 10, 3, 9, 2, 5, 9, 3, 8, 8, 3, 4, 9, 6, 9, 8, 3, 10, 5, 8, 2, 4, 7, 3, 8, 7, 10, 10, 6, 2, 8, 3, 8, 5, 0];
rr = array2d(1..4, 1..62, [0, 4, 2, 4, 1, 1, 4, 4, 10, 8, 10, 1, 9, 1, 5, 8, 4, 8, 7, 3, 10, 6, 10, 1, 7, 1, 3, 8, 7, 1, 7, 1, 4, 8, 1, 4, 1, 2, 2, 3, 4, 3, 8, 9, 10, 2, 6, 2, 2, 4, 1, 3, 8, 7, 10, 2, 10, 6, 10, 7, 1, 0, 0, 10, 6, 5, 8, 9, 4, 8, 2, 10, 7, 4, 9, 2, 3, 8, 1, 10, 2, 9, 5, 6, 3, 6, 8, 2, 5, 4, 7, 3, 6, 6, 5, 8, 8, 2, 4, 8, 2, 6, 9, 6, 1, 2, 7, 1, 10, 10, 2, 6, 2, 3, 2, 6, 5, 3, 1, 9, 8, 10, 1, 0, 0, 10, 10, 10, 4, 5, 9, 4, 1, 8, 10, 7, 6, 10, 9, 8, 7, 6, 2, 3, 9, 3, 1, 1, 9, 5, 9, 8, 10, 5, 9, 2, 1, 9, 5, 7, 5, 8, 4, 1, 3, 2, 2, 8, 10, 1, 1, 5, 7, 10, 5, 8, 4, 1, 9, 6, 4, 3, 5, 1, 4, 0, 0, 4, 10, 3, 10, 6, 1, 10, 3, 10, 4, 9, 1, 2, 9, 9, 9, 1, 2, 5, 2, 4, 2, 5, 6, 5, 10, 6, 2, 6, 7, 4, 4, 7, 2, 2, 7, 9, 6, 5, 9, 2, 1, 6, 8, 9, 1, 1, 10, 7, 7, 10, 9, 5, 9, 7, 7, 3, 4, 1, 1, 0]);

suc = [
   {2, 3, 4},
   {5},
   {32, 6, 30},
   {18, 11, 12},
   {8, 22, 7},
   {16},
   {9, 14, 15},
   {10, 13, 31},
   {19, 54, 39},
   {48, 20},
   {26, 21},
   {42},
   {49, 44},
   {24, 45},
   {17, 61},
   {23},
   {32},
   {41},
   {27},
   {58},
   {35},
   {42, 28, 47},
   {25},
   {34},
   {52},
   {29, 55},
   {49},
   {35},
   {36, 46},
   {49},
   {40, 33, 37},
   {44},
   {38},
   {40, 50, 47},
   {56, 38},
   {38},
   {44, 55},
   {43},
   {51},
   {60},
   {59},
   {55},
   {53},
   {56, 45},
   {57},
   {61},
   {61},
   {60},
   {50},
   {52},
   {56, 52},
   {58, 53},
   {57},
   {57},
   {59},
   {58},
   {59},
   {60},
   {62},
   {62},
   {62},
   {  } ];

deadline = array2d(1..62, 1..3, [7, 3, 0, 11, 1, 3, 15, 2, 4, 18, 2, 2, 26, 0, 4, 30, 2, 1, 30, 3, 2, 33, 1, 5, 41, 2, 5, 41, 2, 1, 41, 5, 2, 42, 0, 0, 46, 0, 4, 48, 5, 0, 53, 2, 0, 53, 2, 5, 53, 2, 0, 55, 2, 1, 60, 5, 0, 61, 1, 2, 63, 2, 5, 63, 2, 4, 69, 2, 0, 72, 1, 3, 72, 3, 5, 73, 4, 5, 75, 2, 5, 78, 3, 4, 79, 0, 1, 80, 0, 5, 85, 5, 4, 94, 4, 3, 94, 5, 2, 95, 3, 0, 101, 0, 0, 101, 5, 0, 102, 4, 2, 107, 3, 4, 112, 4, 5, 117, 5, 1, 118, 4, 5, 120, 5, 1, 123, 1, 2, 125, 2, 4, 126, 3, 4, 127, 3, 2, 127, 4, 4, 127, 1, 2, 130, 3, 5, 144, 5, 2, 147, 2, 1, 151, 0, 5, 152, 2, 4, 152, 0, 2, 153, 1, 2, 159, 5, 0, 161, 5, 5, 162, 0, 5, 176, 2, 5, 177, 4, 5, 183, 2, 0, 187, 5, 0]);
