n_res = 4;
rc = [ 63, 52, 50, 49 ];
n_tasks = 62;
d = [0, 8, 10, 5, 5, 6, 7, 4, 9, 6, 8, 3, 1, 8, 3, 5, 2, 10, 4, 6, 2, 5, 10, 8, 2, 8, 4, 3, 4, 1, 6, 6, 1, 10, 6, 10, 8, 5, 5, 6, 9, 7, 3, 6, 1, 1, 6, 9, 8, 9, 10, 6, 3, 1, 9, 5, 4, 7, 1, 10, 6, 0];
rr = array2d(1..4, 1..62, [0, 7, 1, 7, 8, 6, 8, 5, 7, 2, 4, 8, 10, 7, 9, 7, 2, 5, 7, 10, 3, 1, 6, 9, 10, 9, 5, 8, 8, 3, 8, 10, 7, 9, 3, 9, 5, 3, 9, 4, 10, 1, 6, 1, 10, 5, 6, 9, 7, 3, 8, 7, 8, 2, 7, 2, 5, 6, 6, 1, 3, 0, 0, 1, 9, 3, 5, 2, 5, 4, 7, 3, 9, 4, 7, 6, 2, 4, 10, 4, 9, 5, 5, 3, 2, 10, 5, 9, 3, 7, 9, 7, 8, 2, 6, 3, 4, 3, 9, 8, 1, 8, 7, 6, 4, 9, 4, 1, 7, 1, 9, 3, 2, 6, 4, 1, 10, 8, 7, 7, 5, 3, 10, 0, 0, 6, 8, 2, 10, 7, 1, 9, 8, 5, 4, 5, 6, 4, 7, 2, 5, 6, 8, 3, 1, 3, 6, 2, 7, 4, 4, 4, 9, 3, 8, 2, 4, 5, 2, 3, 5, 9, 5, 7, 1, 5, 7, 1, 2, 9, 7, 1, 5, 6, 1, 6, 2, 4, 8, 4, 6, 7, 1, 2, 8, 0, 0, 2, 6, 9, 3, 5, 10, 9, 2, 2, 3, 7, 5, 9, 4, 8, 4, 1, 8, 2, 6, 10, 3, 4, 2, 5, 3, 9, 2, 1, 3, 6, 6, 5, 8, 2, 4, 1, 9, 9, 9, 3, 1, 10, 7, 2, 6, 6, 10, 1, 2, 10, 2, 10, 2, 7, 1, 1, 9, 7, 5, 0]);

suc = [
   {2, 3, 4},
   {11, 46},
   {8, 5, 38},
   {17, 19, 7},
   {16, 12, 6},
   {10, 34, 23},
   {18, 26, 13},
   {9, 20, 15},
   {26, 37, 47},
   {27, 53, 39},
   {14, 22},
   {35},
   {24, 54},
   {30},
   {49},
   {32, 29, 39},
   {25, 36},
   {21},
   {32},
   {56, 41},
   {42},
   {33},
   {52},
   {31},
   {60},
   {54},
   {28},
   {47},
   {30},
   {44},
   {57},
   {43, 45, 55},
   {43},
   {53},
   {52},
   {40},
   {57},
   {58},
   {49},
   {42, 51, 50},
   {57},
   {54},
   {58, 44},
   {56},
   {59},
   {55},
   {48, 51},
   {52},
   {61},
   {53},
   {59},
   {61, 55},
   {60},
   {56},
   {58},
   {61},
   {60},
   {59},
   {62},
   {62},
   {62},
   {  } ];

deadline = array2d(1..62, 1..3, [3, 0, 0, 5, 5, 2, 6, 0, 5, 8, 5, 2, 10, 1, 3, 11, 1, 1, 11, 1, 4, 16, 1, 0, 16, 2, 3, 19, 5, 2, 21, 0, 4, 28, 1, 4, 29, 1, 3, 30, 4, 5, 36, 1, 0, 40, 3, 3, 45, 0, 2, 48, 1, 1, 50, 0, 5, 53, 4, 3, 53, 0, 4, 56, 4, 0, 64, 2, 4, 67, 5, 0, 72, 5, 1, 74, 1, 0, 80, 5, 0, 80, 4, 4, 81, 0, 1, 82, 5, 2, 86, 4, 1, 87, 3, 2, 88, 0, 0, 97, 2, 1, 99, 0, 3, 102, 3, 3, 105, 4, 3, 107, 1, 5, 108, 0, 0, 112, 5, 4, 122, 5, 0, 123, 4, 2, 127, 3, 4, 129, 4, 0, 129, 0, 3, 131, 5, 0, 132, 5, 0, 133, 5, 4, 135, 0, 0, 135, 3, 3, 143, 2, 0, 144, 2, 5, 145, 4, 3, 149, 4, 5, 158, 0, 3, 166, 0, 0, 166, 0, 2, 167, 5, 4, 171, 3, 0, 172, 2, 2, 178, 0, 1, 180, 1, 2]);
