n_res = 4;
rc = [ 16, 16, 17, 26 ];
n_tasks = 62;
d = [0, 5, 10, 5, 1, 8, 9, 10, 6, 3, 7, 10, 6, 8, 5, 3, 3, 5, 4, 10, 9, 8, 5, 4, 5, 7, 5, 1, 5, 4, 6, 7, 8, 5, 6, 1, 8, 5, 3, 2, 1, 7, 6, 7, 10, 5, 4, 5, 10, 9, 8, 7, 6, 8, 4, 8, 2, 4, 4, 6, 10, 0];
rr = array2d(1..4, 1..62, [0, 0, 0, 0, 9, 0, 0, 0, 0, 0, 0, 9, 0, 0, 0, 0, 0, 0, 7, 3, 0, 0, 1, 9, 0, 0, 0, 0, 0, 0, 0, 3, 0, 0, 0, 10, 0, 10, 0, 0, 0, 0, 5, 0, 0, 0, 0, 0, 0, 0, 0, 0, 0, 0, 9, 0, 3, 0, 0, 0, 2, 0, 0, 0, 7, 0, 0, 0, 0, 0, 0, 4, 0, 0, 0, 5, 0, 0, 4, 10, 0, 0, 9, 0, 0, 0, 0, 0, 0, 0, 0, 0, 9, 0, 0, 0, 0, 0, 0, 0, 6, 0, 0, 0, 0, 0, 5, 0, 0, 0, 0, 0, 0, 0, 9, 0, 0, 0, 0, 0, 0, 0, 0, 0, 0, 7, 0, 0, 0, 0, 3, 6, 0, 0, 7, 0, 0, 0, 0, 0, 0, 0, 0, 0, 0, 2, 0, 0, 0, 0, 5, 0, 0, 0, 0, 0, 0, 0, 1, 0, 9, 0, 0, 0, 0, 5, 0, 0, 0, 4, 8, 0, 0, 3, 0, 7, 0, 4, 0, 0, 0, 0, 0, 0, 0, 0, 0, 0, 0, 8, 0, 1, 0, 0, 7, 0, 0, 0, 3, 0, 5, 1, 0, 0, 0, 0, 0, 0, 0, 0, 3, 2, 0, 1, 10, 5, 0, 0, 4, 2, 0, 0, 0, 0, 0, 6, 8, 0, 0, 8, 0, 0, 0, 7, 10, 0, 10, 0, 0, 0, 0, 1, 0, 9, 9, 6, 0, 0]);

suc = [
   {2, 3, 4},
   {59, 12, 20},
   {32, 9, 10},
   {5, 6, 7},
   {16, 19, 29},
   {34, 19, 14},
   {8, 18, 13},
   {11},
   {49, 28, 44},
   {26, 27, 15},
   {42, 21, 30},
   {31},
   {24, 41, 15},
   {17, 57, 55},
   {33, 20, 37},
   {27, 22, 39},
   {25, 36, 37},
   {24, 19, 23},
   {27, 37, 55},
   {34, 38},
   {25, 28, 47},
   {48, 25, 42},
   {40, 49, 31},
   {28},
   {41, 43, 53},
   {48, 35, 46},
   {44, 52, 31},
   {40, 34, 54},
   {40, 48, 35},
   {32, 36, 54},
   {33, 35},
   {33, 50},
   {61, 47},
   {58, 43},
   {45, 47},
   {45, 38},
   {60, 45, 39},
   {43, 44, 39},
   {58},
   {51, 46},
   {59},
   {49, 46},
   {56},
   {56, 53},
   {51},
   {50, 52},
   {56},
   {50, 54},
   {51, 52},
   {55},
   {53},
   {57},
   {58},
   {57, 59},
   {61},
   {60},
   {60},
   {61},
   {62},
   {62},
   {62},
   {  } ];

deadline = array2d(1..62, 1..3, [2, 3, 4, 12, 1, 1, 16, 1, 3, 16, 2, 3, 18, 4, 0, 20, 1, 3, 20, 2, 5, 25, 5, 5, 29, 0, 1, 29, 1, 2, 35, 2, 2, 36, 2, 5, 42, 5, 3, 43, 0, 5, 43, 4, 3, 46, 2, 1, 51, 2, 0, 52, 4, 4, 53, 0, 4, 54, 3, 5, 59, 3, 0, 62, 0, 4, 64, 5, 3, 72, 3, 1, 75, 0, 1, 76, 4, 0, 77, 2, 1, 78, 0, 5, 80, 5, 5, 82, 0, 4, 90, 1, 2, 94, 1, 5, 95, 4, 2, 98, 5, 1, 109, 3, 2, 109, 0, 2, 111, 4, 1, 115, 3, 4, 119, 0, 1, 120, 2, 3, 123, 2, 5, 125, 5, 0, 125, 3, 4, 126, 5, 4, 130, 1, 2, 132, 2, 4, 143, 0, 0, 149, 2, 5, 152, 3, 4, 157, 3, 3, 160, 0, 2, 161, 3, 5, 166, 1, 1, 167, 1, 0, 169, 3, 2, 170, 5, 3, 172, 2, 2, 178, 0, 3, 179, 2, 5, 183, 1, 0, 189, 0, 5, 190, 1, 2]);
