n_res = 4;
rc = [ 41, 36, 34, 38 ];
n_tasks = 62;
d = [0, 9, 6, 9, 4, 10, 7, 9, 10, 6, 9, 7, 2, 9, 5, 2, 4, 8, 2, 8, 4, 6, 1, 1, 8, 8, 2, 10, 8, 2, 8, 7, 5, 1, 1, 3, 5, 10, 10, 5, 10, 1, 1, 8, 10, 10, 6, 4, 1, 2, 10, 7, 6, 6, 1, 1, 5, 3, 2, 8, 6, 0];
rr = array2d(1..4, 1..62, [0, 10, 10, 10, 10, 8, 4, 4, 8, 9, 4, 9, 5, 10, 9, 9, 4, 4, 7, 1, 5, 8, 4, 6, 6, 10, 10, 3, 1, 2, 1, 3, 6, 3, 4, 4, 4, 5, 5, 8, 10, 10, 1, 3, 4, 10, 3, 4, 8, 4, 1, 3, 10, 8, 4, 1, 2, 1, 9, 3, 4, 0, 0, 6, 6, 4, 2, 7, 2, 4, 5, 5, 3, 7, 6, 5, 3, 10, 5, 1, 3, 4, 6, 7, 7, 3, 3, 8, 10, 9, 5, 2, 9, 6, 3, 6, 3, 3, 10, 1, 8, 6, 7, 7, 6, 3, 2, 8, 7, 2, 9, 9, 5, 9, 7, 4, 1, 6, 3, 7, 1, 3, 3, 0, 0, 1, 6, 8, 8, 5, 7, 2, 5, 1, 5, 7, 7, 2, 4, 2, 4, 7, 1, 4, 4, 6, 9, 4, 9, 1, 1, 9, 4, 9, 5, 4, 1, 2, 9, 5, 5, 6, 3, 7, 9, 7, 7, 6, 3, 8, 3, 1, 4, 2, 1, 8, 3, 10, 5, 1, 4, 4, 3, 7, 2, 0, 0, 2, 1, 8, 2, 7, 10, 2, 8, 1, 7, 8, 4, 7, 10, 10, 3, 7, 5, 5, 1, 7, 8, 8, 3, 7, 6, 5, 10, 8, 7, 1, 3, 10, 3, 6, 7, 3, 9, 5, 10, 7, 7, 6, 7, 9, 7, 1, 10, 6, 10, 10, 3, 8, 2, 2, 5, 9, 10, 1, 6, 0]);

suc = [
   {2, 3, 4},
   {27, 37, 6},
   {9, 5, 7},
   {23},
   {33, 22},
   {33},
   {8, 16, 11},
   {10, 59, 14},
   {18, 43, 21},
   {19, 13, 15},
   {12},
   {49, 50},
   {32, 34, 40},
   {22},
   {41},
   {17, 58},
   {25, 51, 29},
   {38},
   {35, 20},
   {24, 28},
   {52},
   {30, 31},
   {26},
   {33},
   {48},
   {61, 54, 31},
   {29, 55},
   {36},
   {59},
   {51},
   {39},
   {61},
   {53},
   {50},
   {51},
   {44, 54},
   {49, 60},
   {42},
   {40},
   {46},
   {53},
   {52, 46},
   {45, 47},
   {48},
   {52},
   {53},
   {48},
   {57, 55},
   {55},
   {56},
   {54},
   {56},
   {57},
   {57},
   {61},
   {58},
   {60},
   {60},
   {62},
   {62},
   {62},
   {  } ];

deadline = array2d(1..62, 1..3, [8, 4, 2, 12, 3, 0, 15, 0, 0, 17, 4, 5, 17, 2, 5, 21, 5, 4, 30, 2, 3, 35, 0, 2, 38, 0, 5, 43, 4, 0, 45, 2, 0, 47, 2, 5, 56, 0, 1, 59, 0, 0, 63, 1, 4, 76, 0, 0, 83, 1, 5, 87, 1, 3, 88, 4, 3, 90, 4, 2, 91, 1, 1, 93, 1, 3, 101, 1, 2, 102, 1, 0, 103, 4, 2, 107, 5, 5, 108, 3, 2, 108, 4, 0, 110, 4, 5, 110, 3, 4, 115, 0, 5, 116, 2, 1, 118, 0, 4, 126, 4, 5, 130, 2, 1, 136, 4, 5, 139, 1, 3, 141, 4, 4, 144, 2, 0, 145, 3, 3, 147, 4, 1, 158, 0, 0, 160, 4, 2, 160, 5, 1, 161, 5, 3, 164, 3, 5, 172, 1, 3, 185, 3, 2, 192, 0, 4, 196, 0, 0, 198, 1, 1, 199, 4, 5, 203, 0, 0, 206, 5, 4, 206, 3, 1, 207, 4, 1, 209, 5, 0, 211, 3, 2, 215, 3, 2, 219, 1, 0, 220, 2, 2, 222, 2, 4]);
