n_res = 4;
rc = [ 33, 23, 26, 26 ];
n_tasks = 62;
d = [0, 10, 6, 7, 7, 10, 9, 4, 8, 10, 8, 7, 5, 9, 6, 5, 4, 10, 8, 7, 4, 2, 7, 6, 7, 4, 7, 4, 6, 10, 9, 1, 10, 6, 3, 10, 4, 6, 2, 10, 6, 3, 3, 7, 10, 9, 4, 1, 5, 7, 5, 9, 8, 8, 9, 2, 9, 2, 8, 1, 8, 0];
rr = array2d(1..4, 1..62, [0, 8, 0, 0, 0, 10, 0, 6, 0, 2, 0, 6, 0, 5, 0, 0, 9, 0, 0, 0, 0, 2, 0, 0, 0, 8, 0, 0, 4, 0, 0, 0, 7, 0, 1, 0, 0, 0, 0, 0, 9, 0, 1, 5, 2, 0, 5, 0, 0, 0, 0, 5, 0, 0, 0, 5, 0, 0, 0, 0, 0, 0, 0, 0, 0, 6, 10, 0, 0, 0, 0, 0, 0, 0, 6, 0, 0, 0, 0, 8, 0, 0, 8, 0, 0, 8, 0, 0, 0, 6, 0, 0, 6, 0, 0, 0, 0, 0, 1, 1, 0, 0, 0, 8, 0, 0, 0, 8, 0, 0, 6, 0, 6, 0, 4, 8, 0, 0, 0, 0, 0, 0, 0, 0, 0, 0, 0, 0, 0, 0, 3, 0, 4, 0, 0, 0, 0, 0, 0, 0, 0, 0, 9, 0, 0, 0, 0, 0, 0, 0, 6, 0, 0, 0, 0, 0, 0, 3, 0, 8, 0, 0, 0, 0, 0, 0, 0, 0, 0, 0, 0, 8, 0, 0, 0, 0, 0, 0, 2, 0, 0, 0, 5, 0, 9, 0, 0, 0, 10, 0, 0, 0, 0, 0, 0, 0, 9, 0, 0, 0, 3, 3, 0, 0, 0, 5, 0, 0, 8, 0, 3, 0, 0, 0, 0, 3, 0, 6, 0, 0, 0, 0, 0, 0, 7, 5, 0, 0, 0, 0, 0, 0, 0, 0, 0, 9, 0, 0, 0, 0, 0, 0, 9, 8, 0, 9, 0, 0]);

suc = [
   {2, 3, 4},
   {25, 12, 47},
   {13, 6},
   {16, 5, 14},
   {32, 10, 28},
   {8, 9, 7},
   {24, 42, 15},
   {11},
   {27, 29},
   {26, 61, 37},
   {56, 49, 18},
   {19, 23},
   {21},
   {39},
   {17},
   {33, 19, 44},
   {44},
   {41, 20},
   {60},
   {34, 22, 39},
   {50},
   {55},
   {58},
   {56},
   {36},
   {55},
   {45},
   {38, 31},
   {40, 30},
   {35, 53},
   {37},
   {45},
   {36},
   {51, 43, 54},
   {41, 46, 57},
   {48},
   {44},
   {39},
   {59},
   {52},
   {45},
   {59},
   {58},
   {46},
   {54},
   {51},
   {50, 53},
   {60},
   {58},
   {54},
   {52},
   {60},
   {57},
   {55},
   {59},
   {57},
   {61},
   {61},
   {62},
   {62},
   {62},
   {  } ];

deadline = array2d(1..62, 1..3, [1, 0, 5, 4, 4, 5, 5, 2, 3, 10, 1, 1, 10, 3, 5, 12, 5, 4, 15, 4, 3, 18, 2, 2, 18, 5, 5, 29, 4, 0, 31, 1, 4, 31, 0, 0, 33, 5, 2, 39, 1, 2, 42, 2, 0, 42, 5, 5, 46, 4, 0, 46, 1, 0, 51, 3, 2, 54, 5, 1, 57, 2, 0, 60, 1, 5, 63, 1, 2, 70, 5, 1, 74, 5, 1, 75, 5, 4, 81, 2, 1, 83, 4, 4, 92, 0, 3, 94, 5, 4, 98, 3, 4, 99, 0, 3, 101, 1, 4, 102, 3, 5, 112, 0, 5, 118, 2, 4, 124, 5, 0, 137, 3, 1, 143, 0, 0, 150, 4, 1, 151, 1, 4, 152, 2, 3, 157, 0, 1, 157, 3, 2, 160, 5, 3, 163, 2, 5, 167, 5, 0, 167, 4, 3, 170, 4, 4, 175, 0, 4, 176, 2, 4, 177, 3, 0, 179, 4, 1, 186, 3, 2, 189, 3, 4, 189, 0, 2, 191, 1, 1, 192, 1, 5, 192, 1, 1, 194, 1, 4, 197, 1, 0, 201, 3, 0]);
