n_res = 4;
rc = [ 44, 53, 49, 63 ];
n_tasks = 62;
d = [0, 10, 2, 6, 6, 5, 7, 10, 5, 3, 9, 5, 7, 4, 6, 2, 6, 2, 6, 1, 10, 9, 5, 9, 3, 9, 2, 5, 1, 10, 7, 7, 7, 6, 3, 2, 8, 1, 5, 9, 6, 4, 6, 6, 9, 10, 2, 8, 8, 9, 4, 1, 9, 4, 8, 1, 1, 5, 4, 1, 4, 0];
rr = array2d(1..4, 1..62, [0, 8, 8, 8, 10, 8, 4, 2, 6, 1, 7, 3, 1, 4, 10, 8, 7, 4, 2, 2, 2, 6, 10, 1, 2, 4, 7, 2, 5, 6, 1, 7, 9, 2, 4, 10, 9, 8, 10, 8, 9, 2, 3, 2, 2, 7, 2, 5, 5, 4, 5, 8, 9, 10, 4, 5, 8, 2, 3, 4, 6, 0, 0, 8, 4, 4, 8, 6, 8, 1, 2, 1, 3, 6, 6, 3, 3, 4, 4, 4, 7, 4, 10, 10, 2, 6, 1, 10, 5, 3, 3, 7, 6, 5, 5, 4, 9, 8, 4, 3, 9, 6, 6, 8, 2, 7, 5, 7, 3, 1, 1, 4, 10, 5, 8, 9, 2, 10, 5, 5, 1, 6, 1, 0, 0, 3, 4, 7, 2, 7, 5, 1, 10, 1, 9, 9, 1, 4, 1, 7, 9, 6, 3, 4, 2, 4, 2, 8, 6, 3, 7, 8, 8, 10, 6, 8, 7, 7, 7, 9, 5, 7, 3, 1, 4, 5, 8, 4, 10, 4, 7, 6, 4, 5, 4, 4, 1, 5, 2, 10, 2, 8, 3, 5, 2, 0, 0, 2, 7, 1, 10, 6, 9, 3, 9, 8, 9, 4, 1, 3, 1, 7, 6, 10, 5, 4, 7, 7, 1, 8, 6, 4, 5, 10, 8, 6, 8, 6, 7, 4, 1, 8, 4, 8, 6, 7, 8, 3, 8, 6, 6, 1, 6, 6, 10, 10, 4, 4, 3, 9, 2, 5, 2, 5, 2, 2, 8, 0]);

suc = [
   {2, 3, 4},
   {10, 13, 6},
   {24, 17, 5},
   {16},
   {8, 12, 14},
   {19, 38, 7},
   {32, 11},
   {9, 18, 27},
   {57},
   {42, 12, 15},
   {57, 26, 20},
   {29},
   {28, 53, 39},
   {58, 35, 30},
   {25, 21, 22},
   {49, 30},
   {50, 19, 23},
   {50, 45},
   {32, 43},
   {33, 27, 31},
   {46},
   {33, 61},
   {32, 48, 37},
   {43},
   {54},
   {40, 54},
   {47},
   {33, 41, 31},
   {40, 41, 44},
   {34},
   {54},
   {40},
   {60},
   {42},
   {48, 41, 36},
   {52},
   {49, 55},
   {43, 44},
   {50, 52, 45},
   {61, 46},
   {55},
   {56},
   {45},
   {51, 52, 46},
   {49, 51},
   {53},
   {48, 51},
   {60, 53},
   {58},
   {55},
   {61},
   {56},
   {59},
   {58},
   {56},
   {57, 60},
   {59},
   {59},
   {62},
   {62},
   {62},
   {  } ];

deadline = array2d(1..62, 1..3, [1, 0, 4, 3, 1, 4, 5, 3, 0, 5, 4, 1, 8, 5, 3, 10, 0, 3, 16, 1, 1, 22, 2, 3, 27, 1, 0, 28, 1, 4, 29, 0, 1, 39, 2, 4, 41, 3, 0, 43, 1, 4, 46, 5, 3, 49, 2, 5, 49, 5, 1, 52, 1, 2, 54, 4, 4, 56, 2, 2, 58, 3, 5, 59, 2, 5, 59, 4, 1, 62, 1, 1, 62, 2, 5, 68, 3, 4, 69, 1, 1, 70, 2, 3, 72, 1, 0, 80, 1, 2, 83, 4, 5, 83, 2, 2, 93, 1, 1, 94, 2, 5, 98, 5, 3, 99, 2, 1, 104, 3, 4, 108, 0, 0, 109, 3, 0, 113, 4, 5, 119, 3, 1, 123, 2, 4, 128, 2, 0, 130, 2, 1, 130, 0, 2, 134, 0, 1, 135, 0, 1, 139, 0, 4, 147, 1, 0, 152, 2, 5, 152, 0, 5, 153, 1, 5, 155, 0, 3, 155, 2, 2, 156, 3, 4, 159, 0, 3, 159, 5, 2, 160, 2, 3, 161, 2, 1, 161, 0, 1, 168, 2, 2, 176, 5, 4]);
