n_res = 4;
rc = [ 46, 49, 42, 35 ];
n_tasks = 62;
d = [0, 4, 5, 10, 6, 10, 8, 1, 7, 1, 1, 9, 6, 8, 3, 3, 8, 2, 5, 3, 2, 2, 2, 8, 6, 9, 3, 10, 7, 7, 7, 9, 8, 1, 5, 8, 7, 5, 1, 9, 2, 2, 5, 6, 7, 3, 6, 4, 3, 7, 6, 9, 1, 8, 9, 6, 10, 2, 10, 5, 6, 0];
rr = array2d(1..4, 1..62, [0, 6, 1, 3, 5, 6, 7, 8, 8, 10, 8, 6, 3, 6, 8, 6, 7, 10, 9, 6, 10, 4, 3, 10, 7, 8, 5, 10, 1, 1, 9, 8, 9, 3, 7, 6, 2, 9, 2, 4, 1, 1, 6, 1, 8, 7, 6, 8, 6, 9, 3, 5, 1, 4, 2, 10, 10, 4, 9, 8, 7, 0, 0, 6, 8, 6, 2, 9, 1, 1, 10, 8, 8, 10, 2, 6, 1, 5, 1, 3, 9, 9, 1, 4, 6, 10, 9, 9, 10, 2, 8, 2, 10, 7, 3, 6, 5, 2, 8, 6, 5, 10, 4, 2, 6, 4, 4, 2, 10, 10, 3, 8, 2, 3, 1, 4, 10, 3, 1, 3, 4, 9, 9, 0, 0, 7, 10, 10, 2, 9, 6, 6, 7, 3, 6, 1, 10, 5, 1, 7, 3, 8, 8, 10, 9, 8, 3, 1, 2, 5, 5, 4, 10, 7, 10, 7, 2, 3, 6, 3, 10, 7, 5, 6, 6, 8, 1, 5, 4, 5, 4, 10, 4, 9, 3, 5, 3, 5, 4, 3, 4, 9, 1, 9, 2, 0, 0, 5, 7, 9, 2, 10, 5, 5, 8, 10, 2, 4, 2, 4, 5, 1, 1, 2, 7, 5, 4, 2, 3, 6, 6, 3, 10, 1, 9, 1, 7, 1, 6, 1, 10, 2, 3, 5, 5, 4, 10, 1, 10, 2, 6, 2, 10, 5, 8, 2, 2, 2, 4, 4, 10, 1, 7, 3, 3, 3, 5, 0]);

suc = [
   {2, 3, 4},
   {16, 10, 13},
   {5, 6},
   {29},
   {17, 60},
   {19, 14, 7},
   {8, 9, 15},
   {39},
   {11, 12, 20},
   {53},
   {58, 30},
   {48, 17},
   {18, 27, 36},
   {31, 22, 23},
   {26, 21},
   {24, 38, 55},
   {56, 41, 49},
   {51, 31},
   {28},
   {25, 34, 33},
   {58},
   {42, 46},
   {32, 57, 35},
   {37},
   {43},
   {49, 35},
   {61},
   {40},
   {45},
   {54},
   {48},
   {60},
   {44},
   {44, 45},
   {51, 55},
   {58},
   {44},
   {54},
   {40},
   {50},
   {51},
   {59},
   {52},
   {57},
   {48},
   {47},
   {55},
   {50},
   {59},
   {52},
   {54},
   {57},
   {56},
   {59},
   {56},
   {61},
   {60},
   {61},
   {62},
   {62},
   {62},
   {  } ];

deadline = array2d(1..62, 1..3, [2, 3, 2, 2, 2, 1, 3, 0, 1, 3, 1, 0, 10, 1, 2, 10, 4, 4, 11, 3, 5, 14, 0, 3, 20, 2, 0, 20, 5, 0, 26, 0, 4, 27, 2, 4, 33, 4, 1, 36, 0, 5, 38, 3, 5, 41, 3, 2, 46, 2, 1, 53, 2, 0, 57, 4, 3, 61, 4, 2, 67, 0, 5, 69, 0, 3, 72, 5, 0, 72, 4, 2, 76, 5, 4, 81, 2, 0, 86, 0, 1, 88, 2, 5, 89, 0, 1, 91, 5, 5, 93, 1, 2, 93, 3, 4, 94, 4, 4, 98, 1, 1, 100, 4, 0, 102, 5, 3, 110, 0, 5, 111, 4, 0, 117, 3, 0, 117, 1, 0, 124, 5, 3, 125, 3, 0, 127, 0, 0, 128, 2, 0, 132, 4, 3, 134, 2, 5, 136, 5, 2, 137, 4, 5, 141, 4, 1, 141, 1, 0, 147, 2, 2, 147, 2, 1, 157, 5, 3, 157, 0, 3, 159, 1, 2, 160, 3, 1, 172, 0, 2, 176, 0, 1, 176, 4, 1, 182, 5, 5, 186, 5, 3, 188, 1, 0]);
