n_res = 4;
rc = [ 43, 30, 56, 34 ];
n_tasks = 62;
d = [0, 10, 4, 3, 10, 5, 8, 8, 2, 3, 10, 7, 9, 4, 5, 7, 5, 5, 2, 1, 2, 8, 2, 9, 8, 1, 6, 3, 9, 4, 3, 6, 6, 8, 1, 1, 10, 10, 8, 10, 9, 2, 3, 2, 3, 3, 8, 5, 5, 10, 5, 4, 3, 1, 3, 5, 9, 10, 10, 6, 2, 0];
rr = array2d(1..4, 1..62, [0, 3, 6, 0, 0, 0, 10, 7, 8, 3, 7, 0, 1, 1, 4, 0, 2, 0, 10, 0, 0, 7, 5, 4, 2, 0, 0, 3, 3, 0, 9, 9, 2, 10, 4, 7, 9, 1, 6, 9, 0, 0, 5, 2, 5, 0, 9, 1, 10, 3, 2, 8, 4, 8, 2, 2, 2, 7, 10, 0, 0, 0, 0, 10, 7, 7, 0, 9, 0, 3, 3, 0, 4, 1, 8, 1, 3, 7, 4, 7, 10, 7, 1, 7, 5, 8, 2, 9, 1, 6, 3, 8, 5, 4, 6, 0, 5, 5, 4, 0, 8, 0, 7, 1, 10, 8, 2, 6, 0, 6, 3, 0, 10, 2, 3, 7, 7, 1, 6, 7, 2, 8, 4, 0, 0, 1, 1, 10, 3, 5, 1, 4, 8, 8, 3, 2, 8, 3, 10, 9, 6, 3, 10, 0, 2, 8, 2, 6, 8, 6, 10, 5, 0, 8, 10, 0, 4, 9, 0, 0, 0, 7, 10, 0, 6, 0, 0, 5, 3, 5, 7, 8, 3, 6, 0, 8, 8, 0, 7, 0, 2, 10, 1, 7, 0, 0, 0, 10, 0, 0, 0, 0, 0, 1, 6, 0, 0, 0, 0, 5, 1, 8, 8, 0, 5, 9, 1, 1, 6, 8, 1, 3, 1, 0, 0, 5, 4, 0, 3, 2, 0, 0, 10, 7, 6, 0, 7, 2, 0, 1, 5, 9, 3, 3, 6, 0, 9, 6, 0, 0, 8, 3, 10, 0, 3, 0, 7, 0]);

suc = [
   {2, 3, 4},
   {26},
   {5, 6, 7},
   {19},
   {8, 49, 13},
   {43, 11},
   {16, 9, 10},
   {37},
   {18, 43, 36},
   {35, 36},
   {27, 12, 15},
   {17, 14, 22},
   {32, 41, 31},
   {24},
   {23},
   {40, 20, 45},
   {29},
   {51, 52, 30},
   {59},
   {25, 21, 39},
   {60},
   {34, 55},
   {29},
   {28, 61},
   {53},
   {38},
   {34},
   {53},
   {59},
   {50},
   {58},
   {33},
   {42, 55},
   {48, 46},
   {44},
   {47},
   {51, 45},
   {50},
   {44},
   {54},
   {44},
   {43},
   {50},
   {53, 54},
   {56},
   {58},
   {52},
   {49, 60},
   {51, 54},
   {57},
   {57},
   {56},
   {56},
   {57},
   {60},
   {58},
   {61},
   {59},
   {62},
   {62},
   {62},
   {  } ];

deadline = array2d(1..62, 1..3, [11, 2, 3, 12, 5, 0, 13, 1, 0, 15, 5, 2, 16, 1, 3, 19, 5, 3, 26, 0, 3, 27, 4, 5, 28, 1, 0, 32, 4, 1, 32, 4, 2, 33, 4, 5, 34, 2, 3, 35, 0, 4, 36, 4, 1, 43, 5, 1, 45, 4, 5, 54, 5, 3, 57, 5, 1, 57, 4, 2, 57, 1, 5, 59, 1, 5, 60, 3, 0, 67, 0, 1, 67, 3, 1, 69, 2, 0, 75, 0, 0, 76, 3, 0, 77, 3, 0, 79, 2, 2, 82, 2, 5, 82, 3, 1, 84, 1, 2, 86, 2, 3, 86, 4, 4, 93, 1, 3, 95, 0, 0, 95, 0, 2, 96, 2, 5, 96, 2, 0, 100, 0, 5, 102, 5, 1, 104, 4, 4, 109, 0, 1, 115, 1, 1, 115, 1, 3, 116, 2, 5, 117, 1, 5, 122, 0, 4, 126, 5, 3, 128, 0, 4, 135, 3, 1, 138, 2, 3, 141, 5, 2, 146, 5, 3, 154, 2, 1, 155, 0, 4, 159, 0, 5, 164, 0, 1, 166, 1, 0, 167, 3, 4, 175, 0, 0]);
