n_res = 4;
rc = [ 19, 31, 14, 13 ];
n_tasks = 62;
d = [0, 1, 9, 5, 1, 8, 4, 5, 10, 10, 4, 6, 1, 10, 7, 3, 1, 6, 9, 3, 2, 10, 3, 8, 5, 4, 4, 7, 10, 2, 1, 9, 8, 10, 5, 9, 2, 2, 9, 9, 1, 10, 7, 8, 10, 2, 3, 6, 7, 4, 6, 5, 9, 2, 8, 4, 4, 9, 6, 7, 3, 0];
rr = array2d(1..4, 1..62, [0, 0, 5, 10, 0, 10, 0, 0, 0, 0, 0, 9, 10, 4, 4, 0, 0, 0, 0, 0, 0, 0, 0, 8, 0, 0, 0, 0, 0, 0, 0, 0, 0, 0, 0, 0, 0, 0, 0, 0, 0, 3, 1, 0, 0, 0, 2, 0, 9, 7, 4, 5, 6, 0, 0, 0, 0, 0, 0, 2, 3, 0, 0, 0, 0, 0, 0, 0, 0, 0, 0, 0, 0, 0, 0, 0, 0, 0, 0, 0, 0, 8, 6, 6, 0, 0, 3, 10, 0, 0, 8, 8, 0, 7, 6, 10, 0, 10, 0, 0, 8, 0, 0, 0, 0, 4, 9, 10, 0, 1, 0, 0, 0, 0, 0, 0, 10, 0, 3, 8, 0, 0, 0, 0, 0, 7, 0, 0, 0, 0, 5, 0, 3, 0, 9, 0, 0, 0, 0, 9, 0, 0, 4, 0, 0, 0, 0, 0, 0, 0, 0, 8, 0, 0, 0, 0, 0, 0, 2, 0, 6, 8, 0, 0, 10, 0, 0, 0, 0, 0, 0, 0, 0, 0, 0, 0, 0, 0, 0, 8, 0, 0, 5, 0, 0, 0, 0, 0, 0, 0, 8, 0, 0, 8, 0, 9, 0, 0, 0, 0, 0, 0, 9, 10, 0, 0, 0, 0, 6, 0, 0, 0, 6, 0, 0, 0, 4, 0, 0, 0, 0, 0, 0, 0, 0, 1, 0, 0, 0, 0, 0, 0, 0, 0, 0, 0, 0, 0, 0, 2, 0, 0, 0, 0, 0, 0, 0, 0]);

suc = [
   {2, 3, 4},
   {20, 5, 36},
   {40, 26, 6},
   {9},
   {10, 7},
   {8, 16, 23},
   {22},
   {19, 29, 14},
   {11, 52},
   {60},
   {12, 55, 15},
   {37, 35, 13},
   {43},
   {24, 20, 44},
   {17},
   {38},
   {33, 18, 27},
   {41, 26},
   {21},
   {25, 52, 30},
   {28, 54},
   {51},
   {49, 44},
   {47},
   {46},
   {39},
   {37},
   {33},
   {34, 36},
   {38, 31},
   {32},
   {42},
   {48},
   {48},
   {41, 39},
   {50, 43},
   {53},
   {53},
   {58, 45},
   {53},
   {43},
   {45},
   {48},
   {56},
   {46},
   {59, 51},
   {57},
   {61},
   {61},
   {51},
   {60},
   {55},
   {59},
   {58, 61},
   {57},
   {58},
   {59},
   {60},
   {62},
   {62},
   {62},
   {  } ];

deadline = array2d(1..62, 1..3, [2, 3, 1, 3, 3, 0, 6, 0, 0, 11, 5, 0, 17, 0, 3, 25, 1, 5, 27, 2, 1, 30, 5, 4, 33, 0, 5, 34, 4, 4, 37, 5, 5, 39, 1, 0, 41, 0, 4, 41, 4, 4, 44, 1, 5, 52, 3, 2, 56, 0, 5, 57, 5, 1, 59, 4, 4, 61, 4, 2, 65, 1, 2, 68, 5, 0, 77, 2, 3, 81, 5, 4, 86, 4, 1, 87, 4, 5, 89, 5, 3, 97, 5, 1, 104, 5, 2, 107, 2, 2, 109, 0, 0, 109, 5, 5, 114, 0, 3, 117, 2, 5, 117, 2, 1, 127, 4, 5, 132, 4, 1, 134, 2, 3, 135, 0, 0, 141, 3, 0, 141, 4, 1, 145, 1, 5, 145, 3, 4, 151, 2, 5, 153, 4, 0, 157, 3, 0, 158, 2, 4, 159, 2, 3, 159, 1, 3, 161, 5, 5, 176, 5, 4, 179, 0, 1, 181, 5, 3, 181, 1, 0, 181, 5, 1, 186, 1, 3, 192, 3, 1, 193, 4, 2, 196, 5, 1, 198, 1, 5, 204, 0, 4, 204, 2, 2]);
