n_res = 4;
rc = [ 24, 21, 22, 31 ];
n_tasks = 62;
d = [0, 5, 9, 5, 9, 6, 6, 2, 8, 10, 8, 2, 7, 1, 9, 6, 2, 10, 7, 4, 1, 6, 7, 4, 4, 4, 7, 6, 2, 5, 5, 9, 8, 2, 3, 4, 1, 1, 9, 4, 9, 3, 7, 7, 3, 6, 9, 6, 5, 6, 5, 2, 8, 2, 8, 2, 8, 10, 8, 2, 7, 0];
rr = array2d(1..4, 1..62, [0, 0, 0, 0, 0, 0, 0, 0, 0, 0, 4, 5, 4, 9, 0, 6, 0, 3, 6, 5, 6, 2, 0, 0, 8, 6, 0, 4, 5, 10, 2, 0, 3, 0, 0, 9, 6, 1, 0, 3, 5, 0, 6, 9, 0, 3, 5, 3, 0, 0, 0, 0, 2, 0, 0, 4, 4, 0, 3, 8, 0, 0, 0, 2, 3, 0, 0, 0, 10, 1, 0, 0, 0, 0, 6, 0, 1, 0, 3, 1, 10, 0, 2, 0, 0, 2, 0, 9, 0, 0, 0, 0, 3, 5, 0, 0, 1, 6, 2, 3, 4, 0, 5, 6, 0, 0, 9, 10, 2, 0, 0, 0, 4, 0, 0, 2, 0, 4, 0, 9, 0, 0, 5, 0, 0, 0, 0, 0, 1, 0, 0, 9, 8, 2, 0, 0, 6, 0, 0, 0, 7, 5, 4, 1, 4, 3, 0, 1, 5, 0, 6, 3, 0, 0, 6, 5, 0, 3, 0, 0, 5, 0, 0, 0, 0, 0, 7, 0, 0, 8, 0, 0, 0, 6, 0, 1, 8, 6, 9, 4, 8, 0, 6, 10, 0, 0, 0, 1, 9, 10, 10, 8, 0, 0, 4, 9, 0, 2, 0, 0, 0, 10, 0, 0, 0, 0, 0, 0, 2, 0, 0, 0, 0, 3, 0, 0, 8, 10, 0, 10, 5, 8, 0, 8, 0, 0, 10, 7, 6, 0, 10, 0, 3, 0, 2, 0, 4, 4, 0, 3, 4, 0, 7, 5, 0, 7, 0, 0]);

suc = [
   {2, 3, 4},
   {24, 9, 12},
   {8, 5, 6},
   {32, 19, 37},
   {10, 15},
   {25, 22, 7},
   {17, 20},
   {11, 31},
   {26},
   {35, 13, 14},
   {18, 36, 38},
   {16, 29, 23},
   {44},
   {17},
   {41},
   {33},
   {45},
   {57, 42, 52},
   {58, 35, 46},
   {57, 61, 21},
   {48},
   {46},
   {56},
   {27},
   {61, 30},
   {28, 39},
   {41},
   {42},
   {45},
   {34},
   {58},
   {43},
   {47},
   {40, 44},
   {49},
   {45},
   {49},
   {59, 51, 52},
   {55},
   {53},
   {44, 53},
   {47},
   {55},
   {55},
   {50},
   {49},
   {51},
   {50},
   {54},
   {58},
   {54},
   {54},
   {57},
   {60},
   {56, 59},
   {60},
   {59},
   {60},
   {62},
   {62},
   {62},
   {  } ];

deadline = array2d(1..62, 1..3, [1, 1, 3, 3, 4, 5, 3, 3, 5, 8, 5, 2, 11, 2, 2, 11, 2, 3, 19, 4, 0, 20, 3, 3, 21, 3, 2, 22, 2, 2, 25, 4, 4, 26, 0, 0, 28, 2, 5, 30, 5, 0, 30, 5, 1, 36, 4, 2, 37, 1, 0, 39, 5, 0, 43, 0, 2, 46, 1, 5, 47, 0, 0, 55, 4, 3, 59, 5, 0, 60, 4, 0, 65, 4, 5, 66, 2, 4, 72, 5, 2, 76, 3, 3, 77, 2, 1, 77, 1, 0, 77, 5, 5, 80, 1, 5, 84, 5, 4, 85, 3, 0, 89, 5, 5, 89, 0, 0, 94, 5, 0, 97, 4, 3, 98, 3, 0, 102, 0, 0, 103, 4, 3, 104, 3, 0, 106, 3, 5, 110, 1, 2, 111, 3, 2, 112, 1, 5, 112, 4, 3, 117, 5, 0, 118, 3, 4, 119, 5, 1, 119, 1, 5, 123, 1, 4, 126, 2, 5, 132, 3, 4, 135, 0, 4, 136, 4, 2, 141, 2, 5, 142, 4, 3, 143, 0, 2, 145, 2, 2, 146, 0, 5, 150, 2, 1]);
