n_res = 4;
rc = [ 49, 32, 42, 38 ];
n_tasks = 62;
d = [0, 9, 9, 10, 5, 9, 10, 5, 1, 5, 10, 9, 4, 5, 7, 6, 8, 2, 7, 4, 10, 4, 6, 9, 2, 7, 4, 1, 2, 9, 2, 8, 9, 9, 3, 5, 1, 2, 2, 7, 9, 9, 6, 7, 7, 2, 4, 8, 5, 9, 2, 5, 5, 3, 9, 7, 10, 4, 2, 4, 10, 0];
rr = array2d(1..4, 1..62, [0, 1, 0, 9, 7, 8, 9, 8, 0, 8, 5, 8, 3, 0, 7, 8, 6, 0, 7, 5, 1, 2, 9, 10, 0, 4, 3, 3, 9, 1, 7, 0, 1, 0, 0, 4, 4, 9, 8, 0, 3, 4, 10, 4, 9, 0, 0, 2, 9, 10, 0, 5, 4, 3, 3, 10, 0, 3, 9, 5, 3, 0, 0, 3, 0, 5, 5, 2, 4, 5, 6, 8, 1, 0, 7, 2, 5, 2, 7, 9, 5, 0, 0, 6, 6, 2, 4, 0, 0, 7, 9, 2, 8, 5, 0, 2, 0, 0, 0, 7, 2, 9, 0, 5, 6, 7, 10, 0, 4, 3, 6, 1, 0, 5, 2, 4, 8, 0, 1, 0, 0, 10, 10, 0, 0, 1, 10, 3, 0, 8, 7, 0, 7, 1, 0, 8, 10, 0, 2, 9, 2, 7, 4, 2, 7, 6, 8, 8, 4, 5, 3, 9, 10, 3, 0, 0, 10, 1, 9, 5, 0, 0, 0, 0, 3, 4, 8, 2, 4, 9, 0, 9, 0, 4, 7, 6, 3, 1, 2, 0, 6, 6, 8, 0, 2, 0, 0, 6, 1, 0, 5, 8, 9, 8, 9, 0, 3, 0, 4, 4, 2, 1, 7, 8, 3, 4, 3, 0, 6, 0, 7, 7, 1, 1, 1, 8, 9, 0, 5, 7, 8, 0, 0, 3, 9, 10, 8, 0, 4, 4, 2, 10, 1, 3, 0, 0, 0, 0, 9, 0, 9, 0, 8, 4, 5, 0, 7, 0]);

suc = [
   {2, 3, 4},
   {16, 10, 5},
   {24, 9, 28},
   {11, 13},
   {11, 6, 7},
   {26, 42, 14},
   {8},
   {19, 12, 20},
   {34, 15},
   {17, 46},
   {17, 18, 21},
   {56, 41, 46},
   {23},
   {33, 37, 49},
   {42, 29},
   {21, 39},
   {22},
   {32},
   {23},
   {49, 28, 23},
   {44, 45, 31},
   {40, 44},
   {25, 26},
   {35},
   {27, 29},
   {57},
   {33, 36, 53},
   {55},
   {32, 30},
   {33, 36, 37},
   {43, 38},
   {50, 39},
   {59},
   {40, 45, 54},
   {58},
   {45, 46},
   {40, 48, 60},
   {42, 47},
   {61, 54},
   {59},
   {50, 47},
   {56, 57},
   {50, 51, 58},
   {53},
   {56},
   {51},
   {48, 57, 52},
   {51},
   {59},
   {52},
   {55},
   {53, 54},
   {55},
   {60},
   {61},
   {58},
   {60},
   {61},
   {62},
   {62},
   {62},
   {  } ];

deadline = array2d(1..62, 1..3, [2, 3, 3, 7, 0, 1, 11, 1, 0, 17, 4, 3, 21, 1, 5, 22, 4, 3, 24, 4, 1, 28, 0, 4, 30, 3, 0, 33, 4, 0, 33, 0, 4, 36, 5, 5, 37, 0, 5, 38, 0, 5, 40, 1, 1, 48, 1, 2, 52, 2, 3, 56, 1, 0, 58, 4, 4, 59, 3, 2, 62, 3, 5, 64, 3, 2, 65, 1, 5, 67, 2, 4, 67, 0, 2, 75, 4, 0, 77, 2, 5, 78, 2, 1, 96, 1, 5, 96, 3, 2, 99, 3, 2, 102, 0, 2, 104, 5, 0, 108, 2, 5, 109, 0, 4, 116, 4, 1, 118, 4, 3, 119, 3, 3, 121, 3, 2, 124, 5, 2, 126, 2, 0, 126, 2, 3, 127, 4, 2, 128, 2, 3, 130, 0, 5, 130, 4, 5, 132, 3, 0, 161, 1, 4, 165, 4, 0, 166, 3, 4, 168, 2, 4, 171, 0, 5, 183, 3, 2, 184, 5, 2, 196, 3, 3, 202, 0, 5, 207, 1, 2, 210, 5, 0, 215, 1, 0, 217, 4, 4, 224, 4, 4, 225, 0, 5]);
