n_res = 4;
rc = [ 18, 21, 15, 31 ];
n_tasks = 62;
d = [0, 7, 9, 1, 6, 4, 6, 7, 10, 5, 3, 4, 4, 4, 3, 10, 6, 8, 8, 8, 5, 9, 9, 7, 10, 2, 10, 2, 1, 10, 2, 3, 5, 8, 9, 9, 3, 8, 6, 1, 3, 3, 2, 1, 7, 3, 4, 8, 6, 9, 6, 7, 1, 2, 6, 5, 1, 2, 3, 5, 10, 0];
rr = array2d(1..4, 1..62, [0, 0, 10, 7, 7, 0, 0, 3, 0, 5, 0, 0, 0, 3, 0, 0, 0, 0, 0, 8, 0, 5, 2, 0, 0, 0, 0, 0, 0, 0, 0, 0, 0, 0, 0, 0, 0, 5, 0, 0, 0, 0, 0, 0, 3, 0, 5, 0, 0, 0, 0, 1, 0, 0, 0, 0, 0, 4, 0, 0, 0, 0, 0, 7, 0, 0, 0, 0, 0, 0, 0, 0, 0, 0, 0, 0, 0, 0, 0, 8, 0, 0, 0, 0, 0, 0, 0, 6, 6, 7, 8, 2, 0, 0, 6, 5, 0, 0, 6, 0, 0, 7, 0, 0, 8, 3, 0, 0, 0, 0, 1, 6, 8, 0, 0, 0, 0, 0, 0, 0, 0, 6, 9, 0, 0, 0, 0, 0, 0, 0, 0, 0, 0, 0, 0, 9, 0, 0, 7, 2, 4, 0, 0, 0, 0, 0, 0, 5, 0, 0, 0, 0, 0, 0, 3, 5, 0, 0, 0, 0, 0, 0, 0, 0, 7, 0, 0, 0, 0, 0, 0, 0, 0, 0, 0, 0, 3, 0, 0, 5, 0, 0, 5, 0, 0, 0, 0, 0, 0, 0, 0, 9, 1, 0, 4, 0, 7, 0, 9, 0, 0, 0, 0, 0, 2, 0, 1, 0, 0, 0, 10, 0, 0, 0, 0, 0, 0, 0, 0, 0, 4, 2, 0, 0, 4, 0, 0, 9, 0, 0, 0, 2, 0, 3, 0, 0, 0, 0, 0, 8, 4, 0, 4, 0, 0, 0, 0, 0]);

suc = [
   {2, 3, 4},
   {22, 6, 7},
   {9, 27, 20},
   {18, 12, 5},
   {9, 30, 23},
   {8, 9},
   {17, 13, 14},
   {10, 11, 44},
   {26, 15},
   {32, 34},
   {53, 29},
   {16, 33},
   {33, 19, 55},
   {51},
   {50, 35},
   {24, 28, 31},
   {40, 45},
   {37},
   {20},
   {36, 21},
   {43, 35, 52},
   {32, 33, 45},
   {25},
   {42, 29, 46},
   {49, 46},
   {42, 44},
   {34, 43},
   {29},
   {48},
   {32, 57},
   {42, 39},
   {58},
   {40, 34, 35},
   {41},
   {41, 58, 60},
   {49, 57},
   {38},
   {48, 49},
   {43, 47},
   {41, 52},
   {56},
   {45},
   {46},
   {56, 58, 47},
   {50},
   {48, 59, 51},
   {61},
   {61, 54},
   {52, 60},
   {51},
   {53},
   {56},
   {54},
   {57},
   {59},
   {61},
   {60},
   {59},
   {62},
   {62},
   {62},
   {  } ];

deadline = array2d(1..62, 1..3, [1, 3, 1, 8, 0, 2, 8, 0, 4, 14, 3, 5, 18, 4, 5, 18, 2, 3, 25, 3, 4, 27, 0, 5, 28, 2, 4, 33, 1, 2, 33, 2, 1, 34, 5, 2, 35, 5, 0, 35, 3, 0, 37, 2, 1, 38, 5, 1, 39, 4, 5, 46, 4, 0, 48, 4, 1, 50, 3, 5, 51, 2, 3, 52, 5, 2, 52, 2, 4, 56, 5, 5, 58, 2, 5, 64, 3, 1, 67, 2, 5, 70, 0, 5, 71, 1, 4, 73, 0, 5, 76, 4, 3, 77, 2, 2, 79, 4, 5, 84, 4, 0, 86, 0, 1, 90, 5, 5, 94, 3, 3, 95, 5, 1, 99, 5, 1, 102, 4, 1, 104, 1, 4, 111, 4, 1, 112, 4, 3, 114, 1, 2, 116, 3, 0, 117, 5, 4, 118, 1, 2, 120, 3, 1, 122, 0, 3, 125, 2, 5, 135, 3, 4, 136, 4, 3, 136, 3, 5, 142, 3, 5, 155, 0, 2, 156, 4, 1, 160, 2, 0, 161, 4, 5, 163, 2, 1, 166, 2, 5, 167, 2, 5, 169, 0, 0]);
