n_res = 4;
rc = [ 37, 45, 42, 35 ];
n_tasks = 62;
d = [0, 4, 7, 5, 8, 8, 6, 8, 3, 2, 9, 2, 10, 9, 4, 10, 4, 7, 7, 9, 6, 7, 4, 10, 5, 4, 5, 6, 3, 7, 2, 7, 5, 1, 4, 9, 9, 5, 3, 3, 2, 4, 9, 6, 10, 6, 3, 8, 10, 1, 4, 5, 6, 4, 10, 4, 8, 2, 6, 6, 3, 0];
rr = array2d(1..4, 1..62, [0, 7, 0, 8, 6, 10, 6, 10, 3, 0, 7, 5, 2, 10, 0, 6, 7, 2, 0, 1, 10, 3, 1, 0, 2, 1, 0, 0, 10, 0, 8, 3, 2, 7, 7, 1, 4, 0, 2, 7, 0, 9, 1, 6, 1, 5, 0, 0, 5, 5, 6, 2, 3, 7, 0, 1, 3, 10, 0, 5, 10, 0, 0, 0, 8, 7, 6, 0, 3, 0, 1, 9, 0, 2, 9, 5, 9, 9, 9, 5, 7, 0, 5, 10, 0, 2, 2, 5, 4, 2, 9, 4, 0, 5, 4, 6, 0, 6, 8, 10, 2, 0, 10, 4, 0, 8, 8, 6, 4, 6, 8, 0, 8, 9, 0, 9, 8, 2, 10, 9, 9, 6, 8, 0, 0, 3, 3, 7, 0, 0, 3, 8, 10, 7, 10, 4, 0, 9, 8, 0, 7, 1, 9, 2, 0, 0, 9, 4, 2, 8, 8, 5, 3, 9, 6, 6, 0, 8, 8, 0, 4, 0, 2, 0, 9, 10, 0, 3, 0, 10, 8, 3, 8, 0, 4, 0, 0, 5, 9, 8, 0, 0, 0, 3, 3, 0, 0, 0, 8, 9, 8, 10, 0, 2, 6, 3, 9, 1, 2, 3, 5, 5, 3, 0, 0, 4, 0, 3, 0, 4, 10, 9, 0, 6, 8, 6, 0, 0, 5, 8, 3, 3, 8, 4, 2, 9, 6, 2, 10, 0, 9, 6, 2, 4, 10, 0, 0, 7, 3, 0, 8, 6, 1, 0, 0, 4, 2, 0]);

suc = [
   {2, 3, 4},
   {27, 12, 53},
   {8, 21, 13},
   {5, 6},
   {16, 14},
   {10, 34, 7},
   {19},
   {9, 11},
   {18, 46},
   {28, 15},
   {45},
   {18},
   {27, 38},
   {56, 23},
   {20, 39},
   {17, 27, 54},
   {22, 31},
   {43},
   {45, 31},
   {32},
   {40, 26},
   {24, 49, 47},
   {25, 52, 61},
   {57, 51, 36},
   {48, 30},
   {29},
   {55},
   {33},
   {41},
   {55},
   {35},
   {45},
   {42},
   {44},
   {49},
   {56, 37},
   {48},
   {58},
   {40},
   {48, 43},
   {53},
   {56},
   {59},
   {51},
   {46},
   {53},
   {60},
   {60},
   {50},
   {51},
   {58, 55},
   {60},
   {57, 54},
   {58},
   {59},
   {61},
   {59},
   {61},
   {62},
   {62},
   {62},
   {  } ];

deadline = array2d(1..62, 1..3, [1, 3, 0, 1, 3, 2, 2, 0, 4, 3, 5, 2, 11, 3, 3, 11, 5, 2, 13, 5, 2, 15, 1, 5, 19, 2, 5, 20, 3, 2, 22, 3, 5, 22, 2, 0, 24, 3, 0, 30, 3, 5, 37, 2, 5, 41, 5, 4, 43, 4, 5, 44, 2, 2, 44, 5, 2, 44, 0, 0, 46, 4, 2, 59, 5, 4, 59, 3, 2, 64, 3, 4, 65, 3, 4, 66, 4, 3, 71, 1, 1, 72, 3, 2, 74, 4, 4, 75, 4, 1, 76, 3, 3, 78, 0, 2, 83, 1, 5, 83, 2, 4, 90, 0, 1, 93, 5, 5, 96, 4, 3, 105, 0, 5, 109, 4, 2, 115, 2, 2, 125, 4, 0, 126, 1, 0, 139, 1, 5, 139, 5, 4, 151, 3, 0, 151, 4, 0, 152, 3, 1, 153, 0, 2, 156, 1, 0, 162, 3, 1, 169, 4, 0, 174, 4, 1, 176, 0, 1, 178, 0, 1, 179, 0, 3, 182, 0, 3, 182, 3, 3, 182, 3, 3, 182, 3, 0, 186, 0, 2, 186, 1, 2, 188, 0, 0]);
