n_res = 4;
rc = [ 23, 20, 21, 16 ];
n_tasks = 62;
d = [0, 2, 1, 8, 4, 7, 4, 5, 7, 1, 8, 5, 7, 10, 10, 4, 7, 8, 9, 5, 7, 8, 7, 7, 4, 7, 2, 2, 5, 8, 8, 10, 2, 2, 1, 4, 3, 3, 5, 5, 7, 5, 5, 5, 5, 4, 3, 1, 4, 7, 9, 4, 9, 2, 1, 1, 8, 1, 6, 8, 8, 0];
rr = array2d(1..4, 1..62, [0, 0, 0, 0, 0, 0, 0, 0, 0, 0, 0, 0, 0, 0, 0, 1, 2, 0, 0, 0, 0, 0, 0, 0, 4, 4, 0, 0, 3, 0, 0, 0, 0, 0, 3, 0, 0, 0, 7, 0, 0, 9, 1, 7, 0, 0, 9, 0, 0, 0, 0, 0, 0, 9, 6, 0, 0, 5, 0, 0, 10, 0, 0, 8, 4, 7, 4, 9, 0, 0, 0, 4, 0, 0, 0, 10, 0, 0, 0, 7, 0, 6, 0, 0, 0, 0, 0, 0, 5, 0, 0, 8, 0, 0, 10, 7, 0, 0, 0, 0, 0, 7, 10, 0, 0, 0, 0, 1, 0, 0, 3, 0, 0, 0, 7, 0, 0, 0, 8, 0, 6, 0, 0, 0, 0, 0, 0, 0, 0, 0, 4, 0, 4, 0, 4, 10, 0, 0, 0, 0, 0, 0, 7, 0, 0, 0, 6, 2, 0, 0, 0, 8, 0, 0, 0, 6, 0, 0, 0, 3, 0, 0, 0, 0, 0, 0, 0, 0, 0, 0, 0, 0, 0, 8, 0, 7, 0, 0, 0, 0, 0, 0, 0, 0, 0, 0, 0, 0, 0, 0, 0, 0, 0, 10, 0, 0, 0, 0, 3, 0, 5, 0, 0, 0, 0, 0, 3, 3, 0, 0, 0, 0, 0, 0, 0, 0, 10, 0, 0, 0, 0, 0, 9, 3, 0, 0, 0, 0, 0, 0, 1, 0, 0, 8, 0, 0, 7, 0, 0, 0, 0, 6, 0, 0, 0, 8, 0, 0]);

suc = [
   {2, 3, 4},
   {8, 10, 6},
   {15, 5, 7},
   {9, 18, 13},
   {49, 59, 30},
   {32, 12, 36},
   {34, 11, 28},
   {24, 35, 19},
   {17, 52},
   {25, 21, 47},
   {24, 33, 26},
   {20, 13, 14},
   {40, 50, 45},
   {16},
   {16, 32, 22},
   {25, 35, 39},
   {33, 61, 31},
   {27, 28},
   {46, 44, 38},
   {31, 29, 23},
   {43, 35, 46},
   {36, 29},
   {24, 41, 26},
   {25, 44, 54},
   {50, 60},
   {47, 45, 39},
   {32, 48},
   {47},
   {43, 37},
   {34, 36, 46},
   {34, 43, 42},
   {33, 38, 39},
   {58},
   {57},
   {37},
   {44, 37},
   {40, 38},
   {41, 51},
   {56, 42, 50},
   {48, 42, 55},
   {60, 53},
   {54},
   {45},
   {58, 61},
   {49},
   {48, 52, 55},
   {49, 59, 55},
   {51, 53},
   {56, 51},
   {59, 52},
   {54},
   {53},
   {61},
   {57},
   {56},
   {57},
   {58},
   {60},
   {62},
   {62},
   {62},
   {  } ];

deadline = array2d(1..62, 1..3, [1, 3, 5, 2, 2, 0, 3, 0, 4, 5, 2, 2, 5, 2, 1, 7, 3, 1, 7, 2, 3, 7, 3, 3, 8, 2, 3, 12, 1, 2, 18, 0, 5, 19, 1, 4, 24, 0, 0, 27, 4, 3, 27, 0, 2, 28, 1, 1, 30, 2, 5, 57, 4, 4, 60, 4, 0, 62, 3, 3, 67, 4, 1, 67, 2, 2, 67, 1, 5, 68, 2, 4, 68, 0, 5, 71, 4, 5, 74, 1, 5, 76, 4, 5, 76, 2, 4, 79, 1, 4, 85, 1, 0, 85, 1, 1, 91, 3, 0, 92, 4, 4, 93, 0, 4, 93, 4, 2, 98, 5, 3, 99, 4, 1, 108, 5, 5, 112, 5, 0, 120, 4, 1, 124, 4, 0, 131, 2, 1, 135, 1, 0, 138, 3, 1, 139, 0, 3, 143, 0, 1, 144, 2, 4, 145, 2, 3, 147, 0, 1, 148, 1, 1, 149, 3, 0, 151, 5, 3, 152, 1, 4, 154, 2, 2, 155, 3, 4, 155, 2, 3, 158, 1, 0, 161, 4, 1, 162, 0, 1, 163, 1, 4, 178, 3, 3]);
