n_res = 4;
rc = [ 14, 14, 25, 24 ];
n_tasks = 62;
d = [0, 2, 4, 8, 4, 6, 5, 5, 5, 3, 1, 9, 7, 3, 5, 3, 2, 6, 5, 5, 6, 7, 2, 8, 1, 10, 9, 1, 7, 10, 5, 8, 10, 4, 4, 1, 6, 10, 10, 3, 9, 8, 5, 7, 6, 4, 7, 4, 1, 1, 9, 9, 10, 7, 7, 6, 7, 1, 5, 9, 6, 0];
rr = array2d(1..4, 1..62, [0, 0, 0, 10, 2, 0, 0, 0, 0, 6, 0, 0, 0, 0, 0, 0, 0, 0, 0, 0, 0, 0, 0, 7, 0, 0, 0, 7, 0, 0, 7, 5, 0, 10, 0, 0, 0, 0, 0, 6, 0, 0, 0, 0, 0, 6, 0, 7, 2, 0, 0, 0, 0, 0, 5, 0, 1, 0, 0, 0, 0, 0, 0, 0, 0, 0, 0, 0, 0, 0, 1, 0, 0, 0, 0, 0, 3, 0, 0, 6, 0, 0, 0, 7, 3, 0, 0, 0, 1, 0, 0, 0, 0, 0, 5, 0, 0, 5, 0, 0, 8, 0, 0, 0, 0, 2, 0, 0, 0, 0, 0, 0, 0, 8, 0, 0, 0, 0, 0, 0, 0, 0, 3, 0, 0, 0, 9, 0, 0, 0, 1, 0, 0, 0, 9, 7, 1, 0, 0, 0, 0, 0, 6, 5, 3, 0, 0, 0, 7, 0, 0, 0, 0, 3, 0, 0, 0, 0, 0, 0, 0, 9, 0, 0, 0, 0, 0, 0, 0, 0, 1, 0, 0, 0, 0, 0, 7, 0, 0, 7, 0, 2, 2, 3, 0, 0, 0, 9, 0, 0, 0, 5, 0, 9, 0, 0, 0, 0, 0, 10, 0, 9, 5, 0, 0, 0, 0, 0, 0, 0, 0, 2, 0, 0, 3, 0, 0, 0, 0, 0, 2, 0, 3, 0, 0, 0, 3, 9, 2, 0, 7, 0, 0, 0, 0, 8, 10, 0, 0, 5, 0, 0, 0, 0, 0, 0, 0, 0]);

suc = [
   {2, 3, 4},
   {8, 10, 26},
   {9, 5},
   {15, 6, 14},
   {34},
   {19, 11, 7},
   {56, 37},
   {51, 13},
   {16, 25, 12},
   {17, 38},
   {57},
   {24},
   {59, 28},
   {45, 23},
   {43, 35, 44},
   {20, 21},
   {49, 18, 29},
   {39},
   {41, 22, 31},
   {31},
   {26, 30},
   {27},
   {53},
   {34},
   {32, 27},
   {43},
   {49, 50},
   {42, 45},
   {33, 58, 46},
   {36},
   {54},
   {40},
   {60},
   {40},
   {36},
   {42},
   {44},
   {52, 53, 55},
   {52},
   {54},
   {47},
   {53},
   {45},
   {57},
   {46},
   {60},
   {48},
   {58},
   {57},
   {55},
   {52, 54},
   {61},
   {61},
   {58},
   {61},
   {60},
   {59},
   {59},
   {62},
   {62},
   {62},
   {  } ];

deadline = array2d(1..62, 1..3, [4, 3, 1, 9, 0, 2, 11, 0, 3, 18, 4, 2, 21, 3, 5, 21, 3, 1, 22, 5, 4, 22, 1, 5, 28, 4, 3, 30, 3, 5, 30, 0, 2, 32, 1, 5, 37, 3, 0, 45, 4, 2, 45, 1, 3, 45, 5, 1, 46, 1, 2, 48, 1, 5, 48, 4, 1, 48, 0, 0, 49, 0, 5, 51, 0, 5, 54, 5, 4, 56, 0, 5, 60, 5, 0, 61, 2, 0, 62, 2, 3, 66, 1, 4, 70, 1, 5, 74, 5, 3, 75, 3, 2, 76, 4, 2, 76, 3, 5, 77, 0, 2, 79, 0, 1, 80, 5, 0, 84, 1, 2, 88, 0, 3, 92, 2, 0, 92, 4, 5, 93, 5, 3, 95, 4, 2, 97, 1, 1, 99, 5, 5, 99, 3, 3, 101, 4, 0, 102, 4, 2, 103, 1, 2, 105, 2, 1, 107, 4, 0, 109, 5, 2, 114, 5, 1, 115, 2, 1, 116, 2, 3, 119, 5, 0, 121, 1, 4, 124, 4, 2, 126, 5, 4, 126, 4, 0, 126, 4, 2, 127, 2, 4, 127, 4, 5]);
