n_res = 4;
rc = [ 38, 30, 32, 40 ];
n_tasks = 62;
d = [0, 1, 1, 3, 9, 8, 2, 3, 10, 8, 10, 3, 1, 9, 3, 4, 8, 5, 8, 2, 5, 10, 10, 2, 4, 5, 3, 10, 9, 7, 9, 7, 7, 7, 7, 9, 9, 2, 8, 10, 8, 4, 6, 7, 6, 10, 7, 7, 7, 2, 9, 7, 8, 7, 3, 10, 2, 8, 3, 7, 5, 0];
rr = array2d(1..4, 1..62, [0, 10, 7, 2, 7, 1, 8, 4, 4, 2, 4, 5, 9, 10, 1, 1, 3, 8, 7, 4, 10, 6, 8, 1, 7, 1, 9, 10, 3, 9, 8, 10, 2, 10, 7, 8, 2, 3, 1, 1, 5, 8, 8, 6, 8, 2, 4, 8, 9, 10, 5, 4, 10, 5, 8, 8, 7, 10, 9, 1, 1, 0, 0, 5, 10, 1, 1, 5, 4, 6, 8, 9, 4, 4, 7, 6, 9, 2, 4, 8, 3, 7, 1, 5, 10, 7, 4, 2, 3, 6, 3, 3, 3, 5, 6, 6, 2, 5, 6, 5, 2, 1, 6, 9, 5, 7, 6, 2, 1, 4, 3, 6, 5, 6, 4, 9, 8, 10, 3, 8, 7, 1, 8, 0, 0, 3, 9, 2, 5, 3, 8, 6, 7, 5, 3, 3, 3, 1, 6, 5, 6, 6, 6, 3, 9, 2, 3, 6, 4, 2, 3, 10, 9, 7, 4, 3, 4, 1, 9, 7, 4, 9, 2, 10, 2, 2, 10, 4, 6, 2, 1, 1, 1, 10, 6, 4, 5, 9, 6, 5, 4, 7, 6, 7, 6, 0, 0, 8, 7, 7, 8, 5, 3, 1, 6, 6, 3, 7, 6, 3, 1, 10, 5, 1, 10, 5, 10, 9, 10, 7, 6, 7, 1, 3, 10, 6, 10, 10, 8, 6, 6, 3, 7, 10, 9, 2, 4, 6, 3, 1, 3, 9, 7, 6, 3, 6, 7, 3, 4, 1, 9, 5, 5, 8, 4, 1, 1, 0]);

suc = [
   {2, 3, 4},
   {9, 5},
   {18, 13, 6},
   {57},
   {7},
   {17, 23},
   {8, 10, 14},
   {16, 25, 22},
   {12, 28},
   {11, 12, 29},
   {35, 37},
   {56, 50, 27},
   {24, 15},
   {26, 31},
   {21, 46},
   {19},
   {30, 55},
   {20, 52},
   {34, 36},
   {56},
   {27},
   {45},
   {56},
   {32},
   {33, 58},
   {42, 28, 38},
   {44},
   {41},
   {41, 37},
   {37},
   {47},
   {40, 35},
   {41},
   {40},
   {42},
   {57},
   {59, 45, 39},
   {43},
   {48},
   {48, 59},
   {48},
   {45},
   {53},
   {51},
   {49, 54},
   {52},
   {53},
   {61},
   {50},
   {60, 61},
   {52},
   {55},
   {57},
   {58},
   {58},
   {60},
   {60},
   {61},
   {62},
   {62},
   {62},
   {  } ];

deadline = array2d(1..62, 1..3, [1, 2, 3, 4, 0, 0, 7, 0, 0, 8, 0, 4, 8, 0, 1, 9, 3, 4, 11, 5, 2, 12, 3, 3, 15, 2, 1, 17, 4, 4, 18, 0, 1, 24, 2, 4, 29, 2, 3, 29, 1, 3, 33, 2, 2, 35, 5, 0, 38, 0, 3, 39, 5, 5, 43, 1, 1, 45, 4, 3, 52, 5, 5, 52, 1, 0, 53, 5, 4, 54, 3, 2, 55, 2, 5, 56, 5, 5, 56, 1, 5, 57, 3, 3, 59, 1, 5, 60, 4, 0, 64, 4, 1, 64, 0, 1, 65, 3, 0, 68, 5, 0, 68, 4, 2, 75, 4, 0, 78, 0, 2, 78, 0, 5, 80, 5, 4, 81, 5, 4, 86, 1, 4, 86, 4, 3, 91, 5, 5, 95, 4, 1, 113, 4, 5, 116, 2, 0, 117, 1, 5, 119, 2, 2, 120, 2, 0, 123, 0, 3, 128, 4, 4, 131, 4, 3, 134, 1, 1, 139, 3, 0, 143, 5, 1, 146, 3, 2, 151, 4, 5, 154, 5, 0, 154, 0, 3, 158, 4, 4, 163, 1, 2, 167, 4, 3]);
