n_res = 4;
rc = [ 17, 24, 17, 18 ];
n_tasks = 62;
d = [0, 7, 5, 1, 3, 5, 7, 2, 7, 6, 9, 4, 4, 10, 7, 10, 3, 7, 10, 4, 5, 4, 7, 1, 2, 2, 1, 6, 1, 8, 2, 10, 4, 9, 7, 5, 7, 6, 2, 2, 7, 4, 4, 9, 6, 2, 3, 3, 2, 3, 7, 9, 7, 4, 1, 9, 10, 2, 10, 3, 2, 0];
rr = array2d(1..4, 1..62, [0, 0, 0, 0, 0, 3, 0, 7, 0, 0, 0, 0, 0, 0, 0, 0, 0, 0, 0, 0, 0, 0, 0, 0, 0, 0, 9, 0, 0, 2, 0, 0, 0, 0, 0, 0, 5, 0, 0, 4, 0, 0, 7, 0, 9, 9, 0, 9, 0, 0, 0, 3, 0, 0, 8, 0, 6, 0, 5, 0, 0, 0, 0, 0, 0, 8, 0, 0, 0, 0, 0, 0, 3, 0, 6, 0, 0, 0, 1, 0, 9, 0, 2, 0, 0, 0, 0, 9, 0, 2, 0, 0, 0, 0, 7, 0, 5, 0, 0, 0, 0, 0, 1, 0, 0, 1, 0, 0, 0, 0, 0, 3, 7, 0, 0, 0, 0, 3, 0, 10, 0, 0, 0, 0, 0, 5, 3, 0, 7, 0, 9, 0, 0, 0, 0, 0, 0, 4, 0, 10, 0, 9, 0, 2, 0, 9, 0, 0, 0, 0, 0, 0, 0, 0, 9, 5, 0, 0, 0, 6, 0, 10, 0, 0, 0, 0, 0, 0, 0, 0, 0, 0, 4, 0, 0, 0, 0, 2, 0, 0, 0, 0, 0, 5, 2, 0, 0, 0, 0, 0, 0, 0, 0, 0, 9, 8, 0, 2, 0, 0, 6, 0, 0, 0, 0, 0, 0, 0, 9, 7, 7, 0, 0, 0, 6, 0, 0, 0, 0, 8, 0, 0, 0, 0, 9, 0, 0, 10, 0, 0, 0, 0, 9, 0, 0, 0, 0, 0, 2, 0, 0, 0, 0, 0, 0, 0, 0, 0]);

suc = [
   {2, 3, 4},
   {23},
   {49, 20, 7},
   {8, 9, 5},
   {11, 12, 6},
   {17, 29},
   {10, 19},
   {35},
   {13, 14, 15},
   {57, 44},
   {58},
   {24, 28},
   {32, 26},
   {16, 40, 50},
   {25, 42, 37},
   {38, 22},
   {18, 52, 30},
   {32, 21},
   {27},
   {47},
   {48, 39},
   {56, 36},
   {46, 55},
   {50},
   {35},
   {44},
   {31},
   {56},
   {61},
   {33},
   {43, 47},
   {43},
   {34},
   {54},
   {53, 45},
   {54},
   {41},
   {53, 55},
   {45},
   {41},
   {48},
   {58},
   {51},
   {60},
   {57},
   {49},
   {53},
   {59, 51},
   {51, 52},
   {55},
   {61},
   {56, 54},
   {57},
   {60},
   {59},
   {60},
   {59},
   {61},
   {62},
   {62},
   {62},
   {  } ];

deadline = array2d(1..62, 1..3, [1, 4, 5, 2, 5, 1, 6, 2, 4, 8, 2, 1, 14, 3, 2, 16, 0, 4, 17, 3, 5, 17, 1, 5, 19, 1, 5, 35, 3, 4, 37, 4, 0, 38, 3, 4, 40, 1, 5, 42, 1, 4, 46, 4, 3, 49, 0, 0, 51, 3, 3, 56, 0, 4, 58, 5, 0, 60, 2, 3, 61, 4, 0, 61, 4, 0, 67, 1, 2, 68, 4, 0, 69, 0, 5, 72, 2, 1, 73, 1, 3, 74, 5, 2, 77, 2, 2, 79, 2, 1, 79, 3, 5, 83, 0, 2, 86, 4, 1, 86, 2, 3, 86, 3, 2, 87, 2, 2, 88, 5, 0, 90, 1, 5, 96, 3, 2, 101, 1, 0, 103, 4, 4, 104, 1, 5, 107, 3, 2, 107, 1, 1, 110, 5, 4, 116, 3, 1, 119, 3, 4, 120, 2, 0, 120, 1, 0, 120, 5, 2, 121, 4, 3, 128, 5, 3, 130, 1, 3, 131, 5, 0, 134, 1, 1, 138, 2, 3, 140, 0, 3, 142, 1, 1, 143, 4, 3, 148, 1, 1, 149, 1, 3, 151, 0, 4]);
