n_res = 4;
rc = [ 45, 41, 37, 35 ];
n_tasks = 62;
d = [0, 5, 8, 6, 6, 2, 1, 2, 1, 10, 10, 8, 5, 6, 9, 1, 9, 1, 3, 7, 1, 7, 7, 6, 3, 10, 6, 3, 1, 3, 7, 5, 2, 3, 2, 5, 10, 5, 2, 5, 8, 6, 2, 4, 6, 9, 5, 6, 10, 1, 6, 1, 10, 8, 9, 6, 9, 6, 1, 9, 8, 0];
rr = array2d(1..4, 1..62, [0, 5, 7, 7, 9, 9, 6, 9, 2, 2, 8, 6, 4, 10, 4, 5, 7, 9, 3, 2, 1, 9, 7, 7, 9, 5, 4, 8, 2, 7, 8, 10, 1, 10, 9, 6, 7, 5, 10, 5, 1, 2, 3, 3, 3, 4, 10, 5, 3, 6, 6, 2, 10, 1, 7, 2, 7, 3, 1, 2, 1, 0, 0, 4, 4, 8, 7, 3, 5, 3, 6, 4, 5, 8, 3, 7, 10, 9, 9, 6, 3, 8, 9, 4, 5, 9, 2, 2, 9, 9, 2, 2, 5, 2, 3, 3, 1, 8, 3, 8, 6, 10, 7, 7, 8, 1, 10, 7, 2, 10, 3, 5, 5, 5, 5, 8, 7, 10, 6, 2, 3, 5, 3, 0, 0, 10, 1, 1, 7, 5, 7, 3, 4, 8, 3, 7, 3, 5, 2, 10, 2, 5, 7, 6, 3, 3, 10, 6, 1, 3, 9, 10, 1, 9, 4, 3, 4, 5, 9, 1, 5, 3, 1, 6, 10, 5, 6, 6, 3, 8, 9, 6, 6, 3, 10, 7, 9, 5, 2, 10, 10, 1, 4, 8, 8, 0, 0, 1, 2, 3, 8, 8, 9, 7, 3, 6, 1, 4, 10, 3, 3, 7, 5, 3, 6, 10, 9, 2, 2, 10, 3, 5, 2, 7, 1, 2, 9, 4, 6, 1, 2, 8, 3, 7, 9, 1, 2, 1, 6, 3, 4, 8, 10, 1, 7, 7, 9, 10, 8, 9, 5, 10, 6, 10, 5, 9, 4, 0]);

suc = [
   {2, 3, 4},
   {18, 27, 29},
   {16, 5, 31},
   {25, 6, 22},
   {8, 13, 23},
   {9, 10, 7},
   {19, 12},
   {11},
   {17, 26, 14},
   {21, 14, 15},
   {40, 17, 38},
   {32, 18, 31},
   {24, 25, 20},
   {49, 59, 28},
   {19, 52, 46},
   {33, 19, 35},
   {34, 50, 30},
   {40, 34},
   {24, 20, 47},
   {28, 53, 36},
   {24, 45},
   {49, 23},
   {33, 36, 39},
   {28, 44},
   {49, 54, 55},
   {42, 36, 54},
   {48, 41, 37},
   {60},
   {33, 42, 31},
   {48, 55, 47},
   {38},
   {37, 46, 55},
   {34, 43, 38},
   {45},
   {40, 43, 37},
   {56},
   {45},
   {50, 52, 58},
   {41, 43},
   {41, 51, 44},
   {42, 53},
   {61, 46},
   {48, 44, 47},
   {58},
   {54},
   {59},
   {58},
   {51},
   {50, 51},
   {60},
   {56, 52},
   {57, 53},
   {61},
   {56, 59},
   {57},
   {57},
   {60},
   {61},
   {62},
   {62},
   {62},
   {  } ];

deadline = array2d(1..62, 1..3, [2, 2, 3, 20, 2, 0, 22, 1, 3, 22, 4, 0, 24, 3, 4, 28, 3, 4, 28, 2, 1, 34, 1, 5, 35, 4, 4, 35, 2, 5, 40, 1, 2, 43, 1, 5, 44, 4, 3, 45, 3, 1, 45, 1, 5, 46, 1, 0, 51, 3, 4, 55, 1, 0, 57, 2, 4, 58, 4, 5, 59, 4, 5, 63, 4, 3, 69, 4, 4, 76, 1, 5, 79, 5, 3, 83, 1, 0, 85, 0, 5, 85, 4, 5, 89, 2, 1, 90, 4, 5, 93, 2, 3, 95, 4, 5, 97, 4, 3, 99, 3, 1, 103, 5, 5, 108, 2, 0, 118, 0, 1, 119, 3, 2, 122, 2, 5, 129, 5, 4, 133, 2, 5, 137, 1, 4, 147, 4, 0, 150, 1, 1, 152, 0, 3, 153, 0, 3, 154, 3, 3, 155, 3, 4, 156, 1, 5, 156, 5, 2, 160, 2, 3, 163, 1, 4, 163, 2, 0, 166, 0, 4, 169, 5, 2, 172, 5, 5, 177, 4, 3, 178, 0, 1, 180, 3, 4, 180, 3, 3, 180, 1, 2, 183, 5, 3]);
