n_res = 4;
rc = [ 32, 42, 42, 35 ];
n_tasks = 62;
d = [0, 7, 1, 8, 5, 5, 1, 9, 2, 9, 8, 2, 7, 5, 1, 4, 8, 6, 4, 2, 4, 8, 9, 9, 8, 3, 9, 1, 9, 9, 2, 1, 8, 9, 1, 1, 7, 10, 2, 2, 2, 6, 9, 10, 6, 8, 5, 3, 7, 8, 10, 3, 1, 5, 10, 3, 7, 3, 5, 3, 9, 0];
rr = array2d(1..4, 1..62, [0, 0, 5, 0, 2, 6, 1, 3, 3, 2, 0, 5, 8, 7, 4, 7, 0, 0, 8, 4, 10, 0, 0, 2, 8, 9, 6, 5, 0, 7, 2, 4, 0, 0, 6, 0, 0, 9, 0, 0, 0, 1, 6, 9, 9, 4, 2, 0, 3, 0, 1, 4, 5, 9, 0, 0, 3, 2, 0, 0, 0, 0, 0, 4, 2, 10, 0, 7, 0, 4, 1, 3, 8, 9, 2, 7, 5, 4, 7, 5, 0, 6, 6, 8, 1, 10, 3, 10, 8, 0, 6, 5, 6, 0, 9, 8, 10, 6, 9, 10, 3, 2, 8, 9, 8, 7, 7, 2, 2, 2, 0, 9, 3, 8, 10, 2, 0, 0, 7, 4, 0, 5, 9, 0, 0, 6, 7, 2, 1, 8, 1, 8, 4, 10, 0, 0, 6, 1, 2, 3, 6, 5, 8, 9, 0, 1, 0, 0, 3, 7, 8, 0, 6, 1, 0, 1, 0, 7, 7, 0, 6, 2, 4, 1, 8, 3, 3, 8, 5, 10, 0, 2, 8, 2, 9, 10, 5, 6, 0, 10, 9, 0, 7, 7, 0, 0, 0, 10, 9, 1, 7, 9, 10, 6, 9, 0, 8, 8, 4, 0, 0, 3, 0, 0, 0, 10, 5, 4, 3, 9, 4, 7, 0, 6, 7, 0, 8, 0, 7, 7, 1, 5, 10, 3, 10, 8, 7, 0, 1, 0, 4, 10, 8, 4, 0, 4, 0, 5, 2, 7, 8, 5, 8, 0, 0, 5, 5, 0]);

suc = [
   {2, 3, 4},
   {33, 6, 7},
   {11, 20},
   {8, 12, 5},
   {17, 13, 23},
   {9, 29},
   {53, 14},
   {15},
   {16, 10},
   {18},
   {49, 36},
   {30},
   {18},
   {24, 31},
   {22},
   {47},
   {21},
   {19, 60},
   {40, 20},
   {28},
   {32, 48},
   {26, 44, 29},
   {51, 27, 54},
   {25, 38},
   {45, 27, 37},
   {32, 46},
   {58},
   {42, 58},
   {46},
   {42, 31},
   {35},
   {55},
   {34, 46},
   {38},
   {39},
   {37},
   {43},
   {41},
   {56},
   {52, 61},
   {48},
   {57},
   {57},
   {51},
   {51, 54},
   {59},
   {60},
   {50},
   {50, 60, 61},
   {56},
   {59},
   {53},
   {54},
   {55},
   {56},
   {57},
   {59},
   {61},
   {62},
   {62},
   {62},
   {  } ];

deadline = array2d(1..62, 1..3, [1, 4, 4, 3, 3, 5, 4, 1, 0, 19, 5, 5, 21, 1, 1, 24, 5, 2, 25, 2, 2, 27, 3, 5, 28, 1, 0, 29, 0, 2, 29, 1, 0, 29, 4, 2, 32, 4, 2, 32, 5, 1, 41, 0, 2, 42, 3, 1, 42, 5, 1, 43, 0, 5, 43, 1, 3, 44, 0, 1, 49, 5, 2, 52, 3, 3, 53, 5, 4, 54, 0, 5, 55, 0, 4, 64, 3, 5, 65, 2, 3, 69, 5, 5, 70, 0, 4, 70, 2, 5, 71, 5, 5, 72, 3, 0, 76, 1, 4, 81, 0, 0, 82, 5, 1, 87, 1, 5, 87, 3, 2, 94, 2, 5, 98, 4, 3, 106, 3, 2, 112, 5, 1, 112, 2, 2, 115, 0, 2, 116, 5, 2, 119, 0, 5, 126, 2, 3, 128, 4, 5, 128, 2, 4, 129, 1, 0, 132, 1, 3, 134, 3, 3, 135, 2, 3, 139, 5, 2, 148, 1, 3, 148, 4, 3, 157, 3, 0, 157, 3, 2, 162, 3, 5, 162, 0, 4, 167, 3, 2, 168, 0, 1, 169, 3, 0]);
