n_res = 4;
rc = [ 42, 42, 32, 40 ];
n_tasks = 62;
d = [0, 9, 3, 9, 4, 2, 10, 4, 6, 9, 2, 5, 9, 10, 1, 9, 10, 4, 8, 10, 5, 1, 10, 8, 6, 6, 1, 6, 9, 5, 7, 10, 4, 6, 6, 7, 6, 10, 5, 7, 1, 7, 1, 5, 7, 7, 5, 9, 3, 5, 3, 9, 10, 6, 10, 4, 3, 8, 4, 9, 1, 0];
rr = array2d(1..4, 1..62, [0, 3, 2, 7, 2, 7, 0, 2, 5, 4, 10, 7, 7, 6, 4, 0, 2, 0, 0, 8, 2, 7, 6, 5, 2, 4, 4, 8, 6, 1, 4, 9, 7, 0, 10, 0, 3, 1, 2, 9, 6, 8, 7, 4, 10, 0, 0, 2, 0, 5, 3, 10, 8, 2, 0, 3, 3, 0, 3, 0, 0, 0, 0, 6, 0, 8, 3, 8, 0, 3, 4, 0, 0, 3, 2, 7, 3, 7, 0, 4, 8, 0, 2, 5, 0, 8, 0, 2, 0, 5, 6, 10, 0, 5, 7, 8, 10, 8, 0, 0, 6, 6, 3, 2, 10, 1, 4, 5, 10, 4, 6, 0, 1, 4, 8, 8, 1, 0, 0, 7, 4, 4, 4, 0, 0, 10, 4, 10, 4, 2, 3, 0, 0, 0, 10, 0, 0, 0, 4, 2, 0, 4, 6, 7, 2, 4, 10, 0, 0, 6, 8, 2, 0, 0, 9, 0, 3, 3, 1, 6, 8, 0, 0, 9, 4, 3, 4, 1, 0, 2, 2, 3, 3, 6, 0, 9, 2, 0, 7, 0, 2, 4, 0, 8, 10, 0, 0, 0, 2, 7, 1, 7, 10, 9, 3, 3, 0, 1, 9, 8, 6, 6, 5, 10, 5, 0, 0, 3, 5, 7, 5, 2, 7, 4, 10, 6, 0, 2, 6, 10, 0, 10, 0, 5, 4, 10, 2, 10, 8, 0, 0, 4, 0, 10, 0, 5, 2, 10, 8, 5, 6, 0, 3, 9, 9, 1, 9, 0]);

suc = [
   {2, 3, 4},
   {35, 5, 22},
   {40, 6, 7},
   {8, 9, 24},
   {12, 37, 38},
   {17},
   {16, 39, 31},
   {10, 14, 15},
   {32, 11},
   {42, 13},
   {19, 21, 30},
   {13},
   {48, 20, 36},
   {55},
   {18},
   {33, 29, 46},
   {57, 61, 47},
   {25},
   {44, 23},
   {26, 28, 53},
   {38},
   {34, 27},
   {28},
   {33},
   {51},
   {46},
   {45},
   {51, 29},
   {50},
   {39},
   {59},
   {52},
   {38},
   {51, 43},
   {41, 58},
   {57},
   {57},
   {45},
   {56},
   {45},
   {56},
   {50},
   {49},
   {52},
   {52},
   {60},
   {48},
   {49},
   {54},
   {60},
   {61},
   {56},
   {58, 54},
   {55},
   {59},
   {60},
   {59},
   {61},
   {62},
   {62},
   {62},
   {  } ];

deadline = array2d(1..62, 1..3, [7, 1, 2, 14, 2, 0, 14, 3, 4, 19, 0, 4, 21, 2, 2, 29, 4, 4, 29, 2, 4, 29, 5, 2, 31, 0, 0, 33, 1, 0, 35, 3, 1, 43, 2, 0, 44, 4, 2, 45, 0, 2, 46, 2, 2, 48, 3, 4, 52, 5, 3, 55, 0, 3, 57, 0, 0, 68, 5, 5, 70, 5, 2, 72, 5, 0, 73, 2, 5, 76, 5, 2, 85, 4, 5, 89, 2, 4, 92, 2, 5, 95, 5, 3, 95, 3, 2, 101, 3, 1, 104, 2, 5, 107, 5, 4, 108, 5, 5, 109, 4, 0, 111, 5, 3, 116, 5, 3, 117, 0, 0, 120, 0, 0, 120, 5, 4, 121, 0, 5, 122, 3, 0, 123, 0, 1, 125, 5, 3, 125, 4, 0, 126, 3, 3, 127, 2, 4, 132, 0, 5, 135, 2, 2, 139, 0, 2, 142, 1, 3, 142, 0, 1, 145, 1, 4, 150, 5, 5, 151, 0, 4, 151, 3, 3, 153, 5, 1, 155, 0, 5, 157, 2, 3, 162, 3, 1, 164, 5, 5, 165, 4, 1, 175, 0, 4]);
