n_res = 4;
rc = [ 21, 16, 15, 21 ];
n_tasks = 62;
d = [0, 4, 1, 3, 10, 10, 8, 4, 5, 5, 8, 2, 6, 10, 7, 6, 1, 4, 3, 4, 3, 5, 2, 5, 9, 10, 4, 8, 5, 5, 3, 10, 10, 2, 1, 1, 7, 2, 10, 1, 9, 7, 5, 10, 9, 2, 4, 10, 4, 1, 3, 7, 2, 7, 8, 2, 8, 7, 4, 3, 8, 0];
rr = array2d(1..4, 1..62, [0, 1, 0, 0, 4, 0, 0, 6, 0, 0, 0, 0, 0, 0, 7, 0, 10, 0, 9, 8, 0, 0, 3, 0, 0, 7, 0, 0, 0, 0, 0, 1, 0, 0, 2, 0, 0, 0, 0, 0, 0, 0, 0, 0, 0, 0, 10, 0, 0, 0, 0, 0, 0, 0, 0, 7, 0, 5, 0, 9, 0, 0, 0, 0, 0, 7, 0, 0, 0, 0, 0, 0, 9, 0, 0, 0, 0, 0, 0, 9, 0, 0, 3, 0, 0, 1, 0, 0, 5, 0, 4, 0, 8, 0, 0, 0, 0, 0, 0, 0, 6, 0, 0, 0, 0, 0, 7, 0, 0, 3, 2, 7, 0, 4, 5, 4, 0, 0, 6, 0, 4, 0, 0, 0, 0, 0, 0, 0, 0, 8, 0, 0, 0, 0, 0, 8, 0, 0, 0, 3, 0, 0, 0, 0, 0, 6, 0, 0, 0, 0, 0, 0, 0, 3, 0, 0, 6, 3, 0, 5, 0, 5, 0, 2, 0, 0, 10, 0, 0, 0, 0, 0, 0, 0, 1, 0, 0, 0, 2, 0, 0, 0, 0, 0, 2, 0, 0, 0, 7, 0, 0, 0, 10, 0, 8, 2, 0, 0, 4, 7, 0, 0, 0, 0, 0, 0, 0, 0, 0, 0, 5, 0, 0, 8, 0, 0, 0, 0, 0, 0, 0, 0, 9, 0, 0, 0, 6, 8, 0, 3, 0, 10, 0, 0, 0, 0, 0, 0, 0, 0, 0, 0, 0, 0, 0, 0, 0, 0]);

suc = [
   {2, 3, 4},
   {5, 15},
   {57, 10, 7},
   {6},
   {35},
   {8, 9, 41},
   {18, 11, 29},
   {25, 13, 23},
   {17, 12, 30},
   {24, 20, 22},
   {46, 21, 14},
   {16, 32, 51},
   {58, 43, 61},
   {42, 44, 31},
   {57},
   {34, 19, 28},
   {35},
   {34},
   {36, 60},
   {40},
   {27},
   {49},
   {26, 37},
   {26, 52},
   {60},
   {53},
   {34},
   {36},
   {52},
   {33, 47},
   {40},
   {54},
   {39},
   {38},
   {51, 45},
   {56},
   {46},
   {48},
   {53},
   {60},
   {55},
   {50},
   {54},
   {48, 52},
   {55},
   {56},
   {48},
   {49},
   {61},
   {56},
   {57, 58},
   {53},
   {54},
   {55},
   {59},
   {59},
   {61},
   {59},
   {62},
   {62},
   {62},
   {  } ];

deadline = array2d(1..62, 1..3, [5, 3, 1, 12, 2, 1, 12, 3, 2, 13, 1, 2, 13, 0, 3, 16, 0, 3, 16, 5, 2, 17, 4, 3, 24, 4, 4, 25, 0, 4, 27, 3, 5, 35, 4, 5, 36, 3, 2, 38, 5, 4, 38, 4, 1, 42, 0, 1, 43, 5, 1, 46, 5, 4, 51, 5, 1, 51, 3, 0, 54, 5, 1, 59, 3, 5, 63, 3, 1, 64, 4, 3, 66, 2, 1, 67, 0, 3, 71, 3, 1, 71, 5, 2, 72, 1, 0, 76, 4, 2, 79, 5, 5, 80, 5, 1, 82, 4, 5, 84, 3, 3, 86, 0, 2, 90, 3, 0, 94, 3, 0, 96, 0, 2, 100, 0, 5, 101, 4, 3, 101, 2, 4, 103, 0, 5, 103, 1, 0, 104, 0, 3, 114, 2, 2, 114, 4, 3, 116, 5, 5, 123, 2, 4, 126, 4, 4, 128, 1, 2, 129, 0, 2, 131, 0, 3, 132, 4, 0, 133, 5, 2, 138, 4, 0, 142, 0, 1, 142, 3, 4, 143, 2, 1, 149, 5, 5, 150, 1, 0, 155, 4, 1, 156, 5, 1]);
