n_res = 4;
rc = [ 24, 26, 29, 45 ];
n_tasks = 62;
d = [0, 1, 2, 1, 2, 4, 10, 10, 5, 3, 8, 3, 4, 2, 9, 4, 7, 9, 3, 9, 2, 5, 1, 5, 4, 8, 1, 5, 3, 7, 3, 7, 9, 6, 9, 4, 7, 8, 6, 9, 5, 10, 7, 10, 5, 9, 3, 2, 3, 8, 2, 8, 9, 9, 9, 3, 2, 3, 2, 8, 8, 0];
rr = array2d(1..4, 1..62, [0, 0, 4, 0, 8, 5, 0, 0, 0, 0, 0, 0, 0, 10, 0, 9, 0, 9, 0, 0, 0, 0, 0, 9, 0, 2, 0, 0, 3, 3, 0, 0, 2, 0, 0, 5, 0, 10, 3, 7, 0, 8, 0, 10, 0, 0, 6, 6, 2, 0, 10, 0, 1, 7, 3, 0, 0, 6, 4, 0, 10, 0, 0, 6, 6, 4, 9, 0, 9, 1, 0, 5, 0, 8, 0, 4, 0, 0, 0, 9, 3, 0, 0, 7, 8, 1, 0, 0, 4, 7, 4, 2, 0, 1, 2, 8, 0, 5, 10, 0, 2, 0, 0, 0, 0, 3, 5, 0, 0, 9, 0, 3, 8, 0, 0, 10, 1, 9, 8, 0, 0, 10, 7, 0, 0, 0, 0, 0, 3, 0, 5, 0, 0, 0, 0, 0, 0, 0, 3, 0, 4, 3, 4, 8, 9, 0, 5, 3, 10, 0, 0, 0, 2, 6, 8, 0, 0, 0, 9, 10, 9, 1, 0, 0, 4, 9, 0, 0, 6, 0, 5, 3, 1, 0, 4, 7, 0, 0, 0, 1, 7, 4, 7, 0, 0, 0, 0, 0, 0, 6, 10, 4, 0, 10, 7, 0, 2, 0, 10, 0, 0, 0, 0, 0, 0, 0, 0, 0, 0, 0, 9, 6, 10, 0, 0, 0, 8, 0, 4, 9, 0, 6, 5, 0, 0, 0, 0, 10, 8, 5, 0, 7, 7, 3, 5, 0, 4, 0, 3, 0, 10, 4, 9, 0, 0, 7, 2, 0]);

suc = [
   {2, 3, 4},
   {16, 40},
   {25, 11, 5},
   {19, 6},
   {34, 36, 45},
   {10, 20, 7},
   {8, 27, 15},
   {9, 12, 21},
   {40, 13},
   {33, 14, 30},
   {45, 37, 46},
   {43},
   {17, 36, 41},
   {41, 60, 22},
   {18},
   {54},
   {26, 34},
   {24},
   {42},
   {49},
   {28, 46},
   {26, 28, 23},
   {36, 46, 47},
   {37, 29, 30},
   {33, 41},
   {35, 38},
   {44, 39},
   {35, 31},
   {49, 58, 45},
   {32, 42, 38},
   {32, 34},
   {48, 51},
   {49},
   {51},
   {51},
   {53},
   {42},
   {50, 53},
   {40, 59},
   {56, 43},
   {43, 55},
   {52, 54},
   {47},
   {57},
   {56, 57, 50},
   {48, 52},
   {50},
   {53, 55},
   {54},
   {61},
   {58},
   {55},
   {58, 59},
   {59},
   {61},
   {60},
   {60},
   {61},
   {62},
   {62},
   {62},
   {  } ];

deadline = array2d(1..62, 1..3, [4, 3, 2, 6, 4, 5, 12, 3, 4, 12, 1, 3, 24, 0, 5, 27, 4, 4, 29, 0, 5, 37, 2, 4, 37, 2, 4, 42, 0, 0, 43, 3, 4, 48, 5, 4, 54, 0, 2, 61, 2, 5, 64, 0, 3, 65, 3, 5, 68, 4, 0, 71, 5, 1, 74, 0, 1, 76, 1, 4, 81, 2, 2, 81, 0, 1, 82, 0, 4, 83, 3, 4, 86, 0, 3, 88, 1, 0, 90, 5, 4, 93, 2, 0, 95, 4, 0, 95, 2, 5, 96, 3, 1, 97, 2, 5, 98, 2, 4, 99, 4, 2, 99, 2, 2, 100, 2, 1, 104, 4, 3, 110, 2, 4, 126, 0, 5, 126, 0, 3, 130, 2, 5, 131, 5, 1, 132, 3, 4, 135, 0, 3, 136, 2, 5, 143, 1, 2, 144, 4, 3, 145, 1, 2, 149, 2, 2, 153, 3, 5, 161, 2, 3, 164, 4, 1, 164, 1, 3, 164, 2, 5, 167, 0, 4, 168, 4, 1, 169, 3, 0, 175, 2, 2, 181, 4, 4, 184, 0, 5, 184, 3, 0, 196, 5, 5]);
