n_res = 4;
rc = [ 31, 25, 35, 23 ];
n_tasks = 62;
d = [0, 5, 4, 7, 2, 6, 1, 2, 3, 7, 2, 6, 6, 5, 4, 7, 10, 4, 5, 5, 9, 6, 9, 7, 2, 2, 6, 8, 9, 2, 10, 9, 4, 4, 8, 5, 3, 3, 6, 8, 3, 6, 7, 6, 2, 10, 8, 8, 8, 8, 3, 8, 7, 2, 5, 9, 6, 5, 1, 7, 2, 0];
rr = array2d(1..4, 1..62, [0, 0, 0, 0, 0, 0, 0, 6, 0, 0, 0, 0, 0, 7, 0, 0, 0, 0, 0, 4, 0, 10, 0, 0, 0, 1, 6, 0, 0, 0, 0, 0, 9, 0, 0, 0, 2, 4, 0, 0, 4, 4, 7, 5, 0, 1, 0, 6, 0, 0, 6, 0, 0, 2, 9, 0, 0, 0, 0, 7, 0, 0, 0, 0, 0, 2, 0, 0, 0, 0, 0, 0, 9, 0, 0, 0, 1, 0, 6, 8, 0, 0, 0, 0, 0, 0, 6, 0, 0, 0, 9, 8, 0, 0, 0, 0, 0, 8, 0, 0, 0, 0, 0, 0, 0, 0, 0, 0, 0, 0, 0, 7, 0, 0, 0, 0, 0, 0, 7, 0, 0, 0, 0, 0, 0, 3, 5, 0, 0, 2, 4, 0, 0, 6, 0, 4, 6, 0, 0, 6, 0, 0, 0, 0, 8, 0, 0, 6, 0, 0, 0, 0, 0, 0, 7, 7, 0, 1, 0, 0, 0, 0, 0, 0, 0, 0, 0, 0, 0, 0, 0, 0, 9, 0, 0, 1, 4, 0, 0, 0, 0, 6, 0, 0, 2, 0, 0, 0, 0, 0, 8, 0, 0, 0, 6, 0, 0, 0, 0, 0, 0, 0, 0, 0, 8, 0, 0, 0, 2, 0, 0, 0, 0, 6, 0, 0, 0, 0, 0, 0, 3, 0, 0, 0, 6, 3, 0, 0, 0, 0, 6, 0, 1, 0, 0, 0, 0, 0, 0, 0, 0, 4, 0, 0, 2, 0, 0, 0]);

suc = [
   {2, 3, 4},
   {10, 20, 7},
   {8, 13, 5},
   {46},
   {50, 36, 6},
   {27},
   {24, 11, 30},
   {9, 42, 17},
   {18},
   {16, 12, 22},
   {34, 14},
   {34, 28, 15},
   {49, 19, 38},
   {41, 52},
   {40},
   {26, 60},
   {44, 23},
   {53, 35, 29},
   {32, 33, 21},
   {44},
   {42, 47},
   {25},
   {28, 37},
   {45, 37},
   {57},
   {59, 55},
   {56},
   {31},
   {56},
   {44},
   {50},
   {47},
   {48},
   {43},
   {58, 36},
   {57},
   {54},
   {46, 39},
   {53},
   {43},
   {57},
   {54},
   {59},
   {61},
   {46},
   {51},
   {59},
   {56},
   {51},
   {60},
   {55},
   {54},
   {60},
   {55},
   {58},
   {58},
   {61},
   {61},
   {62},
   {62},
   {62},
   {  } ];

deadline = array2d(1..62, 1..3, [3, 3, 5, 5, 0, 2, 8, 1, 2, 12, 5, 4, 17, 4, 2, 18, 2, 5, 22, 5, 4, 22, 0, 0, 24, 4, 5, 27, 4, 0, 28, 3, 3, 29, 0, 0, 31, 2, 2, 42, 5, 1, 47, 3, 5, 48, 0, 2, 49, 0, 2, 53, 5, 2, 58, 1, 4, 59, 3, 1, 59, 3, 5, 61, 1, 0, 62, 2, 2, 63, 2, 4, 71, 4, 2, 72, 5, 0, 75, 1, 4, 75, 5, 2, 78, 5, 5, 78, 3, 3, 78, 2, 0, 79, 2, 2, 79, 3, 0, 87, 4, 5, 90, 3, 2, 92, 3, 5, 95, 4, 1, 105, 2, 5, 106, 2, 3, 108, 2, 3, 113, 4, 3, 115, 3, 4, 115, 2, 0, 116, 3, 1, 116, 5, 4, 117, 4, 1, 118, 1, 0, 118, 1, 2, 120, 3, 2, 123, 4, 3, 123, 2, 2, 126, 1, 2, 127, 1, 5, 132, 1, 5, 135, 2, 5, 138, 1, 0, 138, 1, 4, 139, 3, 3, 140, 1, 2, 142, 0, 4, 142, 2, 3, 143, 3, 0]);
