n_res = 4;
rc = [ 42, 49, 49, 58 ];
n_tasks = 62;
d = [0, 3, 10, 6, 5, 3, 10, 4, 2, 4, 8, 8, 10, 2, 10, 2, 2, 2, 6, 5, 7, 6, 2, 6, 9, 1, 3, 4, 8, 10, 1, 6, 1, 2, 4, 5, 9, 4, 3, 1, 7, 5, 6, 3, 1, 9, 3, 9, 9, 1, 4, 2, 7, 5, 6, 5, 10, 3, 6, 4, 8, 0];
rr = array2d(1..4, 1..62, [0, 8, 6, 3, 6, 9, 10, 6, 10, 8, 3, 6, 6, 1, 2, 8, 8, 5, 3, 10, 1, 2, 9, 2, 4, 4, 4, 6, 4, 8, 9, 2, 1, 10, 8, 10, 10, 3, 8, 10, 10, 8, 9, 8, 3, 6, 3, 1, 5, 4, 5, 1, 10, 6, 4, 5, 10, 1, 7, 8, 9, 0, 0, 9, 6, 2, 2, 2, 4, 6, 3, 9, 3, 1, 4, 4, 6, 2, 1, 6, 9, 8, 3, 7, 3, 10, 8, 1, 8, 8, 7, 2, 4, 2, 6, 4, 6, 6, 2, 3, 7, 7, 4, 9, 3, 9, 9, 10, 4, 8, 6, 3, 4, 3, 6, 3, 10, 10, 1, 2, 3, 10, 6, 0, 0, 9, 3, 6, 3, 1, 4, 6, 7, 2, 7, 9, 6, 9, 10, 1, 4, 4, 1, 1, 6, 9, 4, 2, 9, 3, 5, 2, 1, 6, 7, 9, 5, 2, 10, 7, 1, 7, 4, 9, 4, 9, 4, 8, 9, 5, 3, 1, 5, 6, 8, 2, 8, 5, 1, 6, 6, 9, 1, 2, 6, 0, 0, 8, 6, 7, 10, 9, 5, 2, 4, 6, 10, 9, 7, 7, 3, 4, 4, 5, 3, 8, 8, 2, 2, 10, 8, 7, 10, 7, 10, 1, 8, 1, 8, 8, 5, 10, 2, 7, 2, 5, 2, 8, 8, 10, 9, 1, 6, 9, 2, 7, 4, 3, 1, 1, 10, 8, 5, 8, 5, 8, 4, 0]);

suc = [
   {2, 3, 4},
   {8, 12, 7},
   {19, 11, 29},
   {16, 5},
   {6, 14},
   {10, 58, 45},
   {55},
   {9, 47, 15},
   {24, 50, 38},
   {25, 26, 22},
   {26},
   {52, 13, 15},
   {59},
   {30, 23},
   {18, 53, 21},
   {17, 34},
   {18, 20, 28},
   {32, 46},
   {33, 47},
   {43, 27, 44},
   {22},
   {40, 37},
   {43, 27, 47},
   {48, 37},
   {34, 61, 38},
   {39},
   {40, 49, 38},
   {35, 36, 31},
   {33, 35, 30},
   {36, 31},
   {60},
   {56, 41},
   {56, 45, 39},
   {57},
   {51},
   {55},
   {42, 55},
   {42, 46},
   {53},
   {42, 54},
   {43, 54},
   {60},
   {57},
   {50, 46},
   {48},
   {60},
   {50, 51},
   {51},
   {56},
   {52, 54},
   {53},
   {58},
   {61},
   {61},
   {57},
   {58},
   {59},
   {59},
   {62},
   {62},
   {62},
   {  } ];

deadline = array2d(1..62, 1..3, [2, 2, 1, 7, 1, 4, 7, 1, 0, 9, 3, 1, 10, 2, 4, 14, 2, 4, 16, 5, 4, 17, 4, 3, 19, 2, 1, 20, 5, 4, 20, 1, 0, 21, 5, 0, 23, 2, 0, 29, 4, 1, 31, 2, 4, 32, 5, 4, 32, 2, 5, 33, 3, 1, 38, 3, 2, 38, 1, 4, 40, 2, 3, 44, 3, 1, 46, 5, 3, 51, 1, 0, 52, 5, 4, 54, 5, 1, 54, 4, 0, 54, 2, 1, 71, 0, 2, 75, 0, 5, 78, 0, 5, 85, 1, 5, 89, 2, 5, 95, 5, 4, 97, 2, 5, 97, 3, 0, 97, 1, 1, 98, 5, 4, 98, 5, 2, 98, 3, 3, 107, 4, 1, 113, 0, 5, 119, 2, 2, 120, 2, 4, 122, 4, 2, 123, 2, 2, 127, 3, 4, 128, 4, 1, 132, 3, 0, 132, 4, 0, 133, 2, 3, 133, 5, 1, 145, 4, 4, 146, 2, 3, 148, 1, 5, 148, 0, 4, 149, 0, 4, 152, 4, 4, 160, 4, 1, 161, 0, 2, 162, 0, 5, 162, 4, 1]);
