n_res = 4;
rc = [ 45, 28, 36, 40 ];
n_tasks = 92;
d = [0, 8, 10, 1, 9, 8, 1, 1, 1, 10, 8, 8, 7, 4, 7, 1, 4, 7, 4, 9, 3, 3, 3, 8, 6, 9, 2, 10, 7, 8, 8, 2, 3, 9, 3, 4, 1, 2, 4, 3, 5, 8, 8, 2, 5, 4, 4, 10, 5, 2, 8, 2, 5, 6, 1, 3, 1, 2, 8, 1, 8, 8, 8, 6, 10, 3, 7, 6, 6, 9, 5, 1, 1, 4, 1, 9, 8, 6, 10, 8, 3, 3, 3, 3, 2, 5, 10, 1, 1, 10, 5, 0];
rr = array2d(1..4, 1..92, [0, 5, 0, 0, 5, 1, 8, 7, 8, 5, 5, 0, 2, 4, 0, 6, 0, 7, 2, 5, 8, 6, 0, 0, 9, 6, 7, 5, 0, 0, 4, 3, 0, 2, 2, 5, 9, 9, 8, 3, 0, 7, 6, 5, 10, 2, 0, 9, 7, 0, 7, 8, 7, 0, 1, 5, 0, 8, 5, 0, 9, 2, 9, 6, 0, 4, 1, 4, 0, 1, 6, 10, 7, 6, 4, 8, 8, 10, 5, 3, 0, 6, 0, 7, 0, 0, 1, 1, 1, 0, 2, 0, 0, 10, 0, 0, 0, 6, 0, 1, 3, 0, 7, 3, 1, 0, 5, 7, 1, 1, 1, 4, 0, 8, 8, 10, 0, 0, 7, 2, 2, 0, 0, 0, 0, 2, 0, 10, 0, 3, 2, 0, 4, 4, 0, 2, 0, 8, 4, 0, 2, 2, 4, 0, 0, 10, 6, 2, 8, 0, 0, 0, 9, 10, 2, 2, 0, 3, 8, 2, 6, 1, 0, 8, 1, 9, 3, 8, 9, 0, 6, 6, 4, 3, 5, 0, 0, 4, 4, 6, 1, 4, 10, 0, 0, 4, 2, 7, 2, 3, 0, 3, 0, 9, 0, 0, 3, 10, 0, 7, 9, 7, 6, 4, 0, 0, 0, 2, 2, 4, 7, 0, 6, 9, 3, 1, 0, 7, 0, 4, 2, 1, 0, 7, 9, 0, 5, 6, 4, 2, 10, 4, 2, 8, 3, 3, 0, 2, 0, 6, 5, 0, 10, 10, 8, 5, 10, 2, 7, 2, 2, 8, 0, 4, 0, 2, 3, 2, 0, 4, 2, 4, 8, 0, 4, 9, 3, 0, 1, 9, 0, 6, 4, 4, 5, 0, 0, 4, 8, 0, 0, 0, 4, 10, 1, 2, 6, 4, 9, 5, 7, 9, 9, 0, 9, 3, 6, 5, 4, 6, 3, 0, 2, 7, 0, 7, 0, 5, 4, 3, 0, 8, 0, 4, 9, 1, 4, 1, 0, 1, 2, 4, 0, 0, 1, 1, 0, 8, 5, 6, 8, 4, 9, 1, 4, 1, 6, 0, 6, 7, 8, 1, 2, 6, 6, 10, 6, 1, 4, 9, 0, 1, 7, 9, 4, 4, 5, 9, 6, 8, 10, 9, 1, 7, 5, 6, 10, 0]);

suc = [
   {2, 3, 4},
   {12, 6, 14},
   {19, 5, 7},
   {8, 22, 47},
   {29},
   {9, 13, 63},
   {25, 10, 38},
   {40, 18},
   {11, 20, 23},
   {24},
   {16, 26},
   {51, 35},
   {19, 21},
   {67, 15},
   {48, 33, 52},
   {17},
   {57},
   {75, 27, 44},
   {36},
   {61, 45},
   {28},
   {64},
   {39},
   {55},
   {58, 53, 31},
   {32, 34},
   {42, 30},
   {88, 41, 54},
   {37, 71},
   {49, 77},
   {60, 54},
   {36},
   {43},
   {56},
   {50},
   {56},
   {46},
   {68},
   {85, 86},
   {68},
   {84},
   {65, 66},
   {82},
   {56},
   {72},
   {48},
   {55},
   {57},
   {80, 59, 70},
   {83, 70},
   {73, 82},
   {82, 69},
   {60},
   {74},
   {64, 88},
   {59},
   {60},
   {62},
   {81},
   {68, 78},
   {62},
   {79},
   {87},
   {91},
   {69},
   {89, 74},
   {85},
   {73, 76},
   {80, 86},
   {90},
   {79},
   {74},
   {79},
   {83},
   {85},
   {87},
   {90, 83},
   {81},
   {86},
   {81},
   {84},
   {90},
   {84},
   {87},
   {89},
   {88, 91},
   {91},
   {89},
   {92},
   {92},
   {92},
   {  } ];

deadline = array2d(1..92, 1..3, [5, 1, 3, 11, 0, 3, 13, 0, 0, 17, 0, 3, 18, 5, 3, 19, 5, 4, 24, 5, 3, 24, 1, 2, 27, 3, 0, 28, 3, 2, 31, 0, 2, 32, 3, 4, 32, 5, 2, 32, 0, 2, 32, 1, 3, 34, 2, 0, 39, 4, 3, 41, 1, 5, 41, 0, 3, 47, 4, 3, 50, 5, 3, 53, 3, 1, 58, 4, 1, 58, 1, 4, 59, 2, 1, 59, 0, 4, 62, 5, 5, 64, 4, 3, 65, 2, 4, 65, 2, 1, 66, 5, 5, 67, 1, 2, 71, 1, 0, 71, 0, 0, 75, 3, 1, 77, 1, 3, 81, 3, 3, 81, 3, 1, 82, 2, 2, 84, 3, 5, 86, 2, 3, 94, 3, 1, 94, 0, 5, 95, 1, 2, 96, 1, 0, 96, 4, 4, 99, 5, 5, 100, 3, 2, 102, 4, 5, 105, 1, 4, 105, 5, 3, 107, 1, 1, 111, 4, 3, 114, 2, 4, 115, 4, 3, 121, 0, 2, 122, 3, 5, 123, 4, 1, 124, 4, 2, 126, 4, 0, 127, 0, 5, 129, 2, 1, 131, 0, 0, 135, 4, 5, 135, 3, 2, 138, 3, 4, 139, 5, 0, 139, 5, 5, 142, 5, 5, 142, 4, 2, 145, 1, 3, 148, 0, 3, 151, 3, 2, 151, 3, 1, 152, 4, 3, 153, 3, 1, 155, 3, 1, 166, 5, 1, 167, 2, 1, 169, 4, 2, 174, 2, 3, 175, 4, 0, 180, 2, 3, 180, 0, 5, 181, 0, 3, 182, 0, 2, 183, 5, 5, 184, 2, 3, 185, 4, 3, 186, 4, 5, 186, 3, 4, 186, 5, 4]);
