n_res = 4;
rc = [ 40, 51, 45, 34 ];
n_tasks = 92;
d = [0, 6, 1, 2, 9, 5, 4, 5, 8, 10, 3, 6, 2, 1, 3, 1, 10, 1, 6, 6, 7, 9, 4, 8, 8, 6, 1, 5, 4, 1, 5, 3, 4, 9, 1, 3, 7, 2, 7, 3, 8, 8, 6, 7, 4, 2, 1, 2, 1, 2, 2, 2, 7, 1, 8, 4, 1, 9, 2, 4, 1, 3, 3, 2, 4, 1, 1, 9, 8, 8, 10, 8, 10, 5, 1, 3, 9, 4, 3, 1, 3, 5, 9, 9, 7, 4, 5, 5, 3, 3, 4, 0];
rr = array2d(1..4, 1..92, [0, 10, 1, 0, 8, 8, 0, 8, 7, 0, 7, 4, 7, 0, 0, 0, 0, 0, 8, 0, 0, 0, 0, 3, 0, 0, 0, 6, 0, 1, 6, 0, 5, 0, 8, 5, 0, 3, 3, 0, 0, 0, 0, 10, 0, 6, 0, 3, 5, 0, 3, 0, 0, 6, 8, 0, 10, 0, 9, 0, 9, 10, 0, 3, 4, 0, 4, 4, 0, 3, 8, 0, 10, 8, 4, 10, 7, 5, 2, 9, 8, 0, 0, 9, 0, 0, 8, 0, 3, 10, 1, 0, 0, 0, 0, 10, 2, 9, 0, 1, 0, 0, 2, 0, 5, 0, 0, 0, 6, 0, 1, 1, 6, 0, 8, 0, 9, 4, 0, 3, 0, 0, 0, 0, 7, 8, 0, 1, 0, 0, 5, 0, 10, 0, 0, 6, 4, 5, 0, 4, 7, 9, 0, 4, 5, 0, 0, 1, 0, 10, 1, 2, 4, 3, 3, 0, 0, 4, 0, 0, 1, 9, 0, 6, 0, 4, 6, 10, 0, 7, 0, 2, 3, 0, 0, 0, 0, 6, 0, 0, 9, 8, 1, 0, 0, 3, 0, 4, 0, 0, 3, 6, 0, 8, 0, 3, 8, 6, 3, 5, 6, 0, 0, 1, 5, 0, 1, 5, 2, 0, 8, 1, 0, 0, 3, 0, 7, 0, 0, 3, 2, 7, 1, 8, 0, 10, 1, 9, 0, 6, 0, 0, 7, 0, 0, 0, 0, 3, 3, 6, 8, 0, 0, 0, 0, 7, 1, 0, 0, 0, 2, 7, 6, 0, 2, 5, 0, 0, 0, 4, 1, 3, 0, 0, 10, 4, 7, 4, 0, 0, 0, 2, 0, 0, 0, 0, 0, 0, 0, 5, 0, 0, 0, 4, 1, 0, 0, 10, 0, 0, 0, 0, 0, 7, 0, 0, 0, 6, 3, 7, 6, 0, 0, 0, 7, 0, 0, 5, 0, 5, 2, 0, 0, 2, 0, 0, 7, 0, 0, 0, 0, 0, 4, 6, 0, 0, 0, 0, 9, 6, 8, 7, 0, 0, 10, 0, 9, 0, 0, 6, 8, 1, 0, 0, 4, 0, 0, 0, 9, 0, 0, 0, 9, 0, 0, 0, 3, 0, 0, 6, 10, 0, 0, 0, 6, 0, 4, 0]);

suc = [
   {2, 3, 4},
   {10, 5, 31},
   {45, 14, 22},
   {65},
   {11, 6, 7},
   {8, 26, 12},
   {32, 9, 29},
   {24, 19},
   {20, 13, 23},
   {16, 17, 56},
   {37},
   {34, 43, 39},
   {25, 21},
   {18, 55, 15},
   {35, 60},
   {85},
   {33},
   {88, 84},
   {71},
   {41},
   {85, 78},
   {65},
   {27, 30},
   {80, 33, 54},
   {50, 67, 52},
   {64, 83, 79},
   {28, 38, 47},
   {39},
   {72},
   {42},
   {46},
   {57, 36},
   {74, 38},
   {76},
   {48, 73, 81},
   {40, 46},
   {43, 61},
   {58},
   {53},
   {45},
   {62},
   {77, 63},
   {44},
   {65},
   {66, 51},
   {60},
   {68},
   {49, 61},
   {51},
   {89},
   {84},
   {79},
   {59},
   {62},
   {86, 62},
   {83},
   {67},
   {78},
   {82},
   {76},
   {76},
   {90, 75},
   {69},
   {85},
   {70, 71},
   {69},
   {81},
   {84},
   {74},
   {87},
   {81},
   {89},
   {91},
   {78},
   {83},
   {80},
   {82},
   {82},
   {90},
   {88},
   {90},
   {86, 87},
   {87},
   {89},
   {86},
   {88},
   {91},
   {91},
   {92},
   {92},
   {92},
   {  } ];

deadline = array2d(1..92, 1..3, [2, 5, 0, 5, 2, 3, 6, 5, 3, 10, 4, 5, 11, 2, 5, 13, 2, 1, 14, 4, 2, 22, 4, 0, 24, 0, 4, 25, 2, 5, 26, 2, 2, 29, 2, 5, 33, 5, 5, 39, 3, 5, 42, 3, 5, 43, 2, 4, 47, 4, 3, 47, 1, 3, 58, 1, 3, 61, 1, 5, 62, 5, 3, 65, 5, 3, 66, 4, 3, 67, 1, 5, 67, 1, 0, 67, 2, 5, 70, 3, 5, 72, 0, 1, 74, 2, 0, 79, 1, 1, 80, 1, 4, 84, 1, 3, 85, 1, 2, 85, 2, 4, 85, 0, 5, 88, 3, 4, 91, 0, 5, 92, 4, 2, 93, 3, 0, 96, 4, 0, 97, 4, 2, 99, 4, 3, 100, 2, 2, 100, 4, 0, 106, 0, 5, 106, 0, 0, 106, 2, 0, 110, 5, 1, 112, 3, 2, 114, 0, 0, 114, 3, 3, 115, 5, 1, 116, 5, 5, 118, 1, 4, 119, 2, 5, 122, 0, 3, 122, 3, 5, 124, 3, 3, 126, 2, 4, 131, 1, 2, 131, 3, 1, 133, 2, 5, 135, 3, 4, 137, 0, 3, 139, 3, 5, 139, 0, 0, 139, 5, 0, 141, 4, 0, 146, 5, 3, 147, 3, 4, 152, 4, 4, 154, 0, 5, 158, 4, 5, 159, 2, 3, 159, 5, 4, 160, 1, 3, 162, 5, 1, 164, 2, 0, 166, 4, 1, 167, 1, 2, 169, 1, 4, 171, 5, 4, 171, 0, 2, 172, 4, 5, 172, 4, 5, 175, 0, 1, 181, 1, 2, 185, 0, 0, 185, 5, 4, 186, 3, 4, 186, 2, 3, 187, 5, 2]);
