n_res = 4;
rc = [ 31, 35, 36, 38 ];
n_tasks = 92;
d = [0, 8, 9, 4, 10, 9, 9, 5, 5, 3, 4, 7, 2, 5, 4, 6, 6, 1, 9, 9, 7, 2, 10, 9, 1, 7, 8, 5, 8, 6, 1, 3, 1, 9, 6, 10, 2, 6, 6, 5, 8, 4, 2, 10, 10, 10, 5, 1, 4, 6, 4, 8, 8, 10, 1, 7, 10, 5, 7, 6, 9, 3, 4, 10, 1, 7, 2, 4, 6, 8, 7, 5, 5, 1, 2, 7, 6, 6, 6, 7, 4, 4, 1, 1, 9, 1, 9, 2, 8, 5, 3, 0];
rr = array2d(1..4, 1..92, [0, 8, 10, 6, 7, 6, 9, 3, 4, 3, 4, 7, 4, 3, 4, 3, 6, 9, 7, 5, 2, 9, 6, 8, 10, 6, 1, 3, 2, 10, 5, 1, 2, 2, 2, 6, 4, 2, 2, 4, 3, 9, 10, 9, 1, 1, 9, 8, 1, 6, 9, 1, 6, 5, 5, 5, 7, 10, 6, 5, 2, 2, 6, 7, 1, 8, 6, 6, 5, 2, 9, 5, 6, 8, 3, 1, 4, 4, 6, 8, 10, 4, 9, 5, 8, 9, 8, 10, 2, 7, 7, 0, 0, 7, 8, 6, 6, 1, 10, 6, 6, 8, 7, 10, 3, 3, 7, 7, 10, 10, 4, 9, 5, 8, 8, 10, 2, 1, 5, 10, 9, 4, 6, 7, 8, 1, 9, 5, 5, 1, 1, 9, 7, 8, 10, 10, 5, 2, 1, 7, 5, 9, 2, 10, 5, 9, 4, 10, 5, 8, 3, 3, 6, 6, 10, 7, 6, 5, 5, 5, 10, 4, 7, 3, 7, 6, 4, 2, 5, 1, 2, 9, 10, 1, 7, 1, 1, 8, 5, 5, 9, 1, 3, 0, 0, 1, 10, 6, 4, 9, 9, 3, 7, 7, 3, 4, 1, 5, 10, 3, 4, 2, 4, 10, 1, 3, 6, 9, 2, 2, 1, 10, 10, 8, 6, 2, 3, 5, 3, 4, 8, 4, 4, 8, 7, 2, 9, 10, 2, 4, 5, 6, 3, 2, 6, 10, 10, 9, 7, 9, 4, 7, 4, 2, 9, 4, 4, 3, 1, 1, 5, 2, 9, 4, 6, 3, 9, 2, 3, 3, 10, 7, 5, 1, 1, 9, 8, 6, 4, 4, 10, 9, 3, 3, 8, 0, 0, 6, 2, 7, 9, 2, 10, 1, 2, 9, 2, 3, 7, 9, 8, 10, 5, 3, 8, 8, 3, 8, 1, 1, 1, 4, 3, 7, 6, 9, 9, 5, 1, 7, 1, 5, 6, 2, 8, 5, 7, 6, 4, 10, 9, 8, 4, 8, 8, 5, 6, 9, 10, 3, 1, 8, 4, 4, 6, 3, 5, 10, 1, 4, 10, 7, 9, 9, 10, 2, 7, 6, 6, 6, 2, 10, 2, 10, 3, 3, 1, 8, 10, 8, 4, 10, 2, 3, 2, 5, 6, 0]);

suc = [
   {2, 3, 4},
   {73, 87},
   {24, 10, 5},
   {8, 9, 23},
   {50, 6, 39},
   {17, 7},
   {21, 11, 13},
   {16, 30, 15},
   {34, 14, 30},
   {20, 45, 15},
   {48, 12, 30},
   {61, 59, 45},
   {37, 55},
   {28, 38, 44},
   {35, 19, 37},
   {17, 34, 19},
   {33, 18, 43},
   {59, 21, 71},
   {26, 22, 47},
   {42, 75, 60},
   {32, 26, 29},
   {36},
   {81, 41},
   {25, 27, 57},
   {91, 60, 84},
   {40, 41, 46},
   {33, 50},
   {49, 35, 61},
   {65, 31},
   {66, 52, 68},
   {51, 37},
   {64, 36},
   {65, 49, 53},
   {54},
   {51, 52, 78},
   {69},
   {57, 53, 54},
   {48, 43, 86},
   {41, 43, 86},
   {48, 81},
   {56, 54},
   {66, 67, 46},
   {85, 77, 46},
   {69, 62, 63},
   {57, 60, 70},
   {83},
   {82, 61, 71},
   {82},
   {81, 51, 79},
   {58, 53, 71},
   {88, 75},
   {59, 69},
   {70, 62, 63},
   {80, 74},
   {58, 70, 63},
   {64, 77},
   {72, 58, 67},
   {68},
   {76, 62},
   {73, 65},
   {90, 87},
   {67},
   {64, 66, 68},
   {80, 74, 83},
   {72},
   {76},
   {85},
   {74, 76, 85},
   {72, 73},
   {78},
   {89},
   {80, 77},
   {79},
   {75, 78},
   {91},
   {79},
   {90},
   {82, 84},
   {86},
   {87},
   {83},
   {88},
   {84},
   {90},
   {91},
   {89},
   {88},
   {89},
   {92},
   {92},
   {92},
   {  } ];

deadline = array2d(1..92, 1..3, [3, 0, 0, 5, 0, 4, 5, 5, 1, 7, 2, 0, 8, 2, 1, 8, 5, 1, 8, 0, 5, 14, 1, 5, 15, 5, 3, 17, 1, 0, 18, 2, 4, 22, 0, 3, 23, 1, 5, 25, 5, 3, 29, 3, 1, 30, 5, 4, 31, 4, 4, 32, 3, 5, 38, 0, 2, 38, 2, 0, 41, 0, 0, 41, 4, 1, 42, 5, 4, 57, 3, 0, 57, 1, 1, 67, 2, 0, 70, 4, 4, 71, 1, 4, 72, 3, 0, 75, 0, 3, 84, 0, 3, 84, 3, 0, 85, 3, 3, 86, 5, 0, 90, 3, 0, 97, 4, 4, 97, 3, 4, 99, 5, 1, 100, 2, 2, 102, 1, 0, 103, 5, 0, 104, 5, 1, 110, 3, 3, 121, 1, 1, 123, 2, 2, 125, 0, 1, 130, 1, 4, 131, 1, 0, 134, 5, 3, 134, 1, 0, 135, 2, 1, 139, 5, 3, 141, 4, 1, 152, 3, 4, 157, 0, 3, 161, 0, 5, 162, 1, 3, 166, 5, 5, 166, 5, 4, 174, 4, 2, 177, 3, 5, 179, 5, 1, 179, 3, 1, 189, 5, 3, 190, 5, 2, 192, 3, 3, 193, 1, 3, 196, 2, 4, 199, 0, 1, 200, 2, 4, 201, 5, 5, 203, 2, 1, 203, 2, 1, 205, 0, 2, 208, 1, 3, 213, 5, 0, 214, 0, 0, 217, 0, 1, 222, 3, 4, 225, 0, 5, 229, 2, 3, 230, 2, 5, 233, 5, 1, 235, 3, 1, 236, 2, 2, 238, 0, 2, 241, 5, 0, 247, 3, 4, 248, 0, 0, 254, 4, 0, 255, 1, 2, 257, 3, 4]);
