n_res = 4;
rc = [ 49, 78, 61, 49 ];
n_tasks = 92;
d = [0, 5, 5, 7, 6, 3, 10, 10, 1, 5, 6, 6, 2, 10, 10, 1, 7, 5, 2, 9, 7, 8, 2, 6, 2, 10, 10, 6, 7, 7, 9, 7, 10, 9, 1, 2, 2, 8, 2, 1, 1, 7, 10, 9, 6, 4, 6, 6, 5, 8, 9, 6, 9, 2, 4, 6, 5, 5, 1, 10, 10, 4, 5, 3, 10, 4, 4, 3, 3, 1, 3, 6, 2, 2, 3, 9, 6, 1, 7, 5, 6, 2, 10, 7, 7, 5, 3, 4, 1, 1, 4, 0];
rr = array2d(1..4, 1..92, [0, 0, 0, 1, 4, 9, 0, 8, 5, 3, 0, 2, 0, 0, 0, 10, 5, 0, 0, 1, 3, 9, 1, 1, 0, 0, 0, 1, 0, 5, 9, 0, 7, 0, 0, 0, 0, 0, 5, 5, 5, 5, 0, 3, 10, 3, 0, 8, 9, 0, 0, 1, 0, 0, 0, 0, 0, 0, 2, 0, 1, 1, 2, 2, 1, 8, 1, 2, 0, 8, 0, 0, 2, 0, 0, 0, 8, 9, 2, 0, 10, 5, 5, 2, 5, 0, 6, 2, 0, 8, 9, 0, 0, 0, 0, 2, 9, 0, 10, 7, 4, 2, 9, 0, 3, 7, 3, 0, 6, 2, 0, 5, 0, 7, 0, 0, 7, 0, 8, 4, 0, 10, 0, 0, 4, 0, 0, 0, 6, 5, 1, 0, 0, 5, 9, 0, 0, 8, 0, 0, 2, 10, 0, 3, 6, 0, 0, 7, 3, 0, 1, 3, 0, 0, 8, 8, 9, 0, 0, 0, 0, 0, 8, 0, 4, 6, 7, 9, 0, 7, 0, 9, 7, 0, 7, 0, 0, 8, 0, 0, 0, 9, 0, 0, 0, 9, 1, 0, 9, 5, 0, 0, 0, 0, 0, 0, 7, 0, 0, 7, 0, 0, 0, 1, 0, 0, 10, 3, 3, 1, 4, 0, 0, 3, 9, 3, 5, 0, 5, 3, 5, 6, 0, 7, 0, 0, 0, 4, 0, 0, 0, 9, 10, 0, 0, 3, 9, 7, 0, 0, 1, 8, 3, 10, 0, 2, 9, 0, 9, 0, 8, 0, 0, 0, 0, 8, 0, 9, 0, 0, 0, 0, 0, 0, 0, 0, 5, 6, 0, 0, 0, 1, 0, 0, 1, 0, 0, 0, 0, 3, 6, 7, 0, 0, 0, 0, 8, 0, 2, 0, 0, 0, 3, 6, 5, 0, 2, 7, 0, 3, 8, 0, 10, 0, 1, 4, 9, 0, 10, 9, 6, 5, 0, 0, 4, 0, 0, 0, 0, 0, 0, 0, 1, 0, 0, 5, 7, 10, 0, 0, 8, 3, 0, 0, 0, 0, 1, 0, 0, 0, 0, 0, 5, 6, 6, 0, 10, 1, 1, 3, 9, 10, 9, 0, 1, 6, 0, 0, 0, 0, 2, 0, 0, 0, 4, 0, 0, 0]);

suc = [
   {2, 3, 4},
   {8, 16, 5},
   {13, 6},
   {23},
   {10, 84, 21},
   {9, 36, 7},
   {56, 91, 14},
   {64, 53, 23},
   {24, 11, 12},
   {49, 51, 46},
   {59, 15},
   {20, 47},
   {34, 19, 70},
   {25, 26, 41},
   {18},
   {17, 42, 43},
   {32, 39},
   {48, 22},
   {27},
   {62, 71},
   {26},
   {40, 35, 29},
   {33, 31},
   {30, 55},
   {85},
   {28},
   {65, 50, 37},
   {58},
   {54},
   {72},
   {69},
   {45},
   {74, 52, 63},
   {44},
   {69},
   {61, 45},
   {38},
   {80, 78, 87},
   {67, 60},
   {58},
   {48},
   {48},
   {64},
   {47},
   {78},
   {66},
   {49, 75},
   {64},
   {55},
   {54},
   {61},
   {88},
   {89, 68},
   {57},
   {79},
   {76},
   {83},
   {61},
   {75},
   {73},
   {80},
   {87},
   {84, 87},
   {79},
   {76},
   {85},
   {82},
   {74},
   {75, 77},
   {72, 74, 82},
   {83},
   {90},
   {85},
   {90, 83},
   {79},
   {81},
   {86},
   {81},
   {80},
   {86},
   {86},
   {88},
   {91},
   {89},
   {88},
   {89},
   {91},
   {90},
   {92},
   {92},
   {92},
   {  } ];

deadline = array2d(1..92, 1..3, [1, 5, 1, 1, 2, 5, 3, 4, 3, 3, 1, 3, 4, 0, 1, 6, 1, 1, 7, 5, 5, 9, 5, 1, 16, 4, 0, 17, 2, 5, 17, 5, 3, 19, 3, 2, 22, 0, 3, 23, 3, 4, 25, 0, 5, 27, 5, 4, 37, 2, 2, 37, 4, 1, 40, 5, 2, 41, 4, 1, 44, 1, 5, 44, 0, 3, 44, 5, 5, 46, 4, 2, 46, 4, 3, 46, 5, 3, 48, 2, 2, 51, 5, 5, 53, 5, 1, 53, 0, 4, 55, 2, 3, 55, 4, 5, 56, 4, 0, 59, 4, 0, 60, 3, 1, 60, 2, 0, 64, 1, 5, 65, 2, 3, 66, 3, 1, 66, 3, 4, 66, 4, 3, 69, 1, 2, 72, 4, 3, 73, 5, 1, 75, 5, 5, 80, 5, 1, 81, 3, 0, 81, 4, 0, 84, 4, 2, 88, 1, 1, 88, 0, 1, 90, 1, 1, 95, 0, 1, 95, 2, 5, 95, 4, 2, 99, 2, 5, 99, 2, 5, 101, 0, 3, 107, 2, 4, 116, 2, 0, 116, 0, 4, 118, 3, 3, 124, 3, 1, 124, 2, 5, 127, 1, 2, 128, 3, 3, 128, 2, 3, 129, 3, 1, 129, 2, 5, 130, 2, 4, 132, 4, 4, 132, 4, 1, 132, 0, 2, 133, 4, 2, 133, 4, 0, 135, 2, 5, 138, 3, 4, 138, 3, 3, 139, 5, 0, 145, 3, 2, 149, 5, 4, 155, 4, 0, 158, 4, 2, 163, 5, 3, 163, 4, 3, 166, 2, 2, 168, 5, 3, 169, 2, 4, 171, 2, 2, 171, 1, 2, 172, 3, 1, 173, 0, 1]);
