n_res = 4;
rc = [ 19, 29, 18, 40 ];
n_tasks = 92;
d = [0, 2, 6, 4, 10, 2, 5, 8, 1, 3, 10, 6, 5, 6, 4, 6, 4, 9, 5, 6, 8, 6, 7, 6, 6, 10, 8, 1, 6, 9, 5, 7, 9, 4, 4, 6, 1, 6, 9, 5, 4, 5, 6, 7, 5, 8, 10, 2, 5, 5, 6, 7, 2, 3, 2, 3, 4, 5, 2, 2, 7, 3, 8, 2, 9, 9, 6, 6, 5, 1, 1, 7, 1, 1, 2, 2, 9, 2, 7, 1, 5, 9, 7, 2, 8, 5, 10, 3, 9, 8, 6, 0];
rr = array2d(1..4, 1..92, [0, 0, 10, 0, 0, 0, 0, 0, 0, 0, 0, 0, 0, 0, 0, 7, 0, 6, 0, 0, 0, 0, 0, 0, 2, 6, 0, 0, 0, 0, 0, 0, 10, 0, 0, 0, 0, 1, 0, 9, 0, 0, 0, 1, 0, 0, 0, 7, 1, 0, 0, 0, 0, 0, 0, 0, 0, 0, 0, 0, 1, 1, 0, 8, 0, 0, 3, 0, 0, 0, 0, 0, 0, 0, 0, 10, 0, 7, 0, 0, 0, 0, 0, 0, 0, 0, 0, 0, 0, 0, 0, 0, 0, 0, 0, 0, 0, 0, 0, 0, 0, 0, 0, 4, 7, 6, 0, 0, 10, 0, 0, 7, 0, 0, 0, 0, 0, 0, 7, 0, 0, 0, 0, 0, 0, 0, 0, 1, 0, 0, 5, 0, 0, 0, 0, 0, 0, 0, 0, 0, 0, 0, 0, 10, 0, 7, 0, 4, 3, 0, 0, 0, 0, 0, 0, 0, 0, 0, 0, 0, 0, 0, 0, 8, 0, 7, 0, 0, 0, 0, 9, 9, 0, 6, 0, 0, 0, 5, 0, 0, 0, 5, 0, 0, 0, 6, 0, 0, 1, 1, 0, 4, 4, 5, 7, 0, 0, 0, 1, 0, 0, 0, 3, 0, 0, 0, 0, 6, 0, 0, 0, 0, 0, 0, 0, 0, 0, 0, 4, 0, 7, 0, 0, 0, 0, 3, 0, 0, 3, 1, 0, 0, 0, 0, 0, 0, 10, 0, 5, 0, 0, 0, 0, 0, 0, 0, 5, 0, 0, 3, 0, 0, 1, 0, 0, 0, 6, 0, 0, 0, 1, 0, 0, 0, 0, 0, 0, 5, 2, 0, 1, 5, 4, 0, 0, 0, 0, 0, 0, 2, 0, 0, 3, 0, 0, 0, 0, 0, 0, 0, 0, 0, 0, 0, 0, 0, 4, 3, 3, 0, 0, 0, 0, 2, 3, 8, 7, 7, 0, 9, 0, 0, 0, 0, 0, 0, 7, 0, 7, 0, 0, 0, 5, 0, 0, 3, 10, 0, 0, 0, 0, 0, 0, 9, 10, 8, 0, 0, 0, 0, 1, 0, 0, 6, 0, 8, 3, 0, 0, 0, 4, 0, 0, 0, 0, 0, 2, 0, 7, 0, 0, 0, 0, 0, 0, 0, 7, 0]);

suc = [
   {2, 3, 4},
   {9, 5, 6},
   {76, 61, 7},
   {10},
   {8, 24, 32},
   {35, 12, 36},
   {33, 77},
   {88, 13, 54},
   {67},
   {50, 11},
   {16, 14, 23},
   {83},
   {17, 18, 15},
   {27, 78, 47},
   {82, 52, 30},
   {18, 19, 28},
   {46},
   {63},
   {25, 20, 21},
   {26, 67, 22},
   {65, 91},
   {56, 73},
   {77, 39, 31},
   {29},
   {48, 58, 68},
   {78},
   {64, 60},
   {34, 44, 37},
   {60},
   {45},
   {38},
   {57},
   {39},
   {87},
   {40, 81, 43},
   {89},
   {42, 90},
   {41},
   {59, 52},
   {70},
   {49},
   {80},
   {51, 69},
   {48, 59},
   {49, 77},
   {71},
   {55},
   {66, 71},
   {53},
   {53},
   {61},
   {62},
   {73, 67},
   {72},
   {62},
   {83},
   {74, 87},
   {72},
   {72},
   {70},
   {80},
   {79},
   {66},
   {66},
   {81},
   {75},
   {85},
   {89},
   {83},
   {79},
   {80},
   {81},
   {85},
   {84},
   {82},
   {87},
   {86},
   {90},
   {86},
   {84},
   {82},
   {85},
   {86},
   {91},
   {89},
   {91},
   {88},
   {90},
   {92},
   {92},
   {92},
   {  } ];

deadline = array2d(1..92, 1..3, [3, 0, 0, 4, 2, 0, 5, 1, 2, 5, 1, 5, 7, 5, 1, 8, 0, 0, 11, 2, 1, 12, 4, 1, 14, 1, 5, 14, 3, 3, 14, 5, 0, 17, 4, 1, 19, 3, 4, 20, 1, 0, 20, 3, 1, 25, 4, 5, 25, 0, 0, 25, 0, 5, 29, 1, 1, 33, 3, 5, 35, 3, 3, 39, 0, 4, 40, 4, 1, 41, 5, 5, 41, 4, 1, 41, 1, 5, 42, 3, 5, 43, 3, 4, 45, 3, 0, 48, 0, 1, 52, 3, 5, 52, 2, 1, 53, 4, 3, 57, 3, 1, 61, 4, 5, 62, 2, 5, 64, 1, 5, 66, 2, 2, 72, 5, 4, 73, 3, 2, 73, 4, 1, 75, 5, 1, 80, 1, 3, 83, 3, 0, 87, 0, 1, 88, 0, 0, 90, 0, 4, 90, 1, 3, 99, 0, 2, 103, 1, 1, 104, 1, 1, 106, 2, 4, 107, 5, 0, 109, 1, 0, 112, 0, 5, 112, 2, 5, 114, 5, 3, 116, 2, 0, 118, 2, 5, 119, 0, 5, 125, 2, 5, 128, 5, 5, 134, 1, 2, 135, 0, 1, 135, 0, 1, 137, 5, 5, 137, 5, 2, 144, 2, 2, 144, 5, 5, 146, 3, 3, 146, 5, 4, 149, 5, 1, 154, 5, 4, 161, 1, 3, 162, 2, 4, 165, 0, 0, 167, 3, 4, 167, 5, 3, 168, 2, 1, 174, 5, 1, 177, 1, 1, 177, 1, 4, 182, 0, 5, 182, 2, 3, 186, 4, 4, 190, 3, 4, 191, 5, 2, 191, 1, 0, 192, 0, 4, 193, 0, 0, 193, 4, 0, 196, 0, 4]);
