n_res = 4;
rc = [ 21, 30, 29, 29 ];
n_tasks = 92;
d = [0, 1, 9, 6, 8, 6, 1, 1, 5, 3, 10, 8, 3, 1, 8, 1, 7, 10, 2, 4, 3, 4, 2, 7, 4, 6, 2, 4, 4, 4, 3, 5, 4, 2, 10, 10, 2, 6, 10, 7, 3, 10, 2, 9, 9, 7, 1, 5, 5, 9, 5, 2, 9, 2, 7, 5, 4, 9, 10, 8, 1, 7, 6, 4, 9, 9, 8, 5, 9, 3, 1, 4, 4, 6, 2, 4, 3, 8, 4, 4, 7, 3, 5, 4, 9, 9, 10, 7, 10, 3, 6, 0];
rr = array2d(1..4, 1..92, [0, 0, 6, 7, 6, 2, 0, 0, 0, 4, 3, 0, 7, 1, 0, 4, 2, 0, 7, 4, 0, 9, 0, 0, 0, 2, 5, 0, 9, 7, 0, 0, 0, 5, 0, 8, 0, 5, 0, 3, 0, 0, 10, 4, 2, 0, 0, 8, 0, 0, 0, 3, 0, 0, 4, 0, 0, 0, 3, 1, 1, 9, 0, 7, 0, 4, 0, 0, 0, 0, 0, 3, 4, 1, 0, 0, 0, 0, 0, 0, 6, 8, 0, 2, 0, 5, 0, 0, 6, 0, 5, 0, 0, 0, 0, 0, 8, 2, 0, 3, 6, 0, 0, 10, 0, 6, 0, 0, 10, 0, 0, 9, 0, 0, 3, 7, 0, 1, 4, 0, 0, 0, 3, 0, 9, 7, 4, 0, 4, 5, 8, 5, 0, 0, 0, 0, 0, 6, 8, 7, 8, 7, 9, 0, 6, 6, 0, 7, 7, 7, 8, 0, 8, 0, 0, 0, 0, 0, 0, 7, 7, 6, 2, 6, 10, 0, 0, 0, 7, 0, 0, 2, 1, 0, 5, 1, 2, 8, 3, 0, 3, 10, 0, 0, 0, 9, 5, 4, 10, 10, 0, 3, 0, 1, 0, 0, 0, 1, 9, 8, 2, 0, 0, 0, 10, 4, 3, 0, 6, 0, 0, 0, 0, 8, 8, 3, 0, 2, 0, 1, 0, 0, 0, 9, 10, 0, 0, 3, 9, 0, 0, 9, 0, 4, 0, 0, 0, 4, 0, 1, 0, 10, 4, 0, 9, 0, 4, 6, 2, 8, 0, 9, 10, 0, 6, 0, 0, 3, 7, 7, 9, 6, 2, 0, 0, 0, 6, 2, 0, 0, 0, 0, 0, 0, 0, 0, 0, 0, 10, 1, 0, 4, 10, 0, 9, 2, 0, 9, 0, 0, 0, 5, 0, 9, 2, 8, 2, 0, 0, 0, 0, 0, 10, 3, 7, 2, 0, 5, 0, 9, 0, 0, 9, 0, 0, 3, 6, 6, 9, 0, 0, 2, 0, 1, 5, 0, 2, 6, 0, 0, 4, 6, 8, 7, 0, 0, 0, 3, 0, 0, 0, 3, 8, 0, 0, 0, 0, 2, 0, 9, 0, 0, 0, 1, 9, 4, 0, 0, 0, 0, 0, 0, 2, 3, 6, 10, 0, 0]);

suc = [
   {2, 3, 4},
   {40, 10, 37},
   {5, 6, 47},
   {57, 11, 52},
   {12, 31, 7},
   {8, 9, 13},
   {18, 46, 39},
   {17, 21, 22},
   {32, 28, 14},
   {19, 20, 23},
   {58, 84, 46},
   {65, 30, 55},
   {72, 44, 71},
   {16, 29, 15},
   {25, 26, 69},
   {64, 27, 45},
   {49, 34, 36},
   {24, 33, 64},
   {58, 43},
   {24, 50, 54},
   {72, 74, 79},
   {42, 53},
   {27, 29, 63},
   {86, 38, 79},
   {34, 39},
   {59},
   {49, 35, 71},
   {56, 30},
   {80, 59, 38},
   {33, 85, 41},
   {40, 74, 38},
   {56, 35, 55},
   {62, 63},
   {82, 76, 37},
   {42, 61, 39},
   {56, 50},
   {48, 58, 53},
   {48, 67, 68},
   {54},
   {50, 51, 66},
   {88, 69, 53},
   {81, 73, 70},
   {44, 52, 60},
   {57, 75, 87},
   {65, 77, 55},
   {51, 70},
   {48, 66, 59},
   {84},
   {88, 60},
   {81, 57, 82},
   {68},
   {64, 68},
   {77, 54},
   {75, 62},
   {60},
   {66, 62, 63},
   {73, 77, 61},
   {74, 83, 61},
   {67, 78},
   {80, 69},
   {65, 91},
   {81},
   {88, 82},
   {72, 67},
   {90},
   {84},
   {71},
   {73},
   {70},
   {78, 79},
   {75},
   {76},
   {76},
   {78},
   {83},
   {85},
   {80},
   {91, 86},
   {83},
   {89},
   {91, 87},
   {86},
   {89},
   {85},
   {89},
   {87},
   {90},
   {90},
   {92},
   {92},
   {92},
   {  } ];

deadline = array2d(1..92, 1..3, [1, 2, 4, 5, 2, 1, 8, 0, 5, 10, 5, 3, 11, 1, 1, 13, 4, 3, 19, 0, 1, 20, 4, 4, 24, 1, 3, 24, 0, 2, 25, 5, 0, 26, 2, 4, 26, 1, 0, 28, 5, 1, 30, 4, 0, 34, 0, 4, 37, 3, 2, 42, 1, 4, 48, 4, 4, 54, 5, 5, 58, 4, 1, 62, 1, 4, 66, 1, 1, 66, 4, 1, 68, 5, 0, 68, 4, 1, 72, 4, 1, 73, 4, 1, 74, 4, 5, 77, 2, 4, 77, 3, 2, 77, 1, 1, 81, 3, 2, 81, 2, 5, 85, 4, 2, 86, 3, 2, 86, 1, 2, 89, 0, 5, 95, 3, 4, 99, 4, 1, 100, 0, 1, 101, 2, 2, 101, 0, 2, 104, 1, 3, 108, 2, 1, 108, 0, 3, 112, 2, 4, 115, 5, 5, 117, 1, 4, 120, 5, 3, 123, 4, 0, 125, 2, 3, 132, 5, 0, 132, 5, 0, 138, 0, 4, 139, 0, 3, 140, 5, 1, 141, 0, 4, 142, 3, 4, 143, 3, 4, 143, 1, 2, 146, 3, 0, 148, 3, 3, 150, 2, 2, 151, 3, 3, 153, 2, 2, 156, 5, 5, 161, 4, 2, 162, 0, 2, 164, 2, 1, 166, 3, 5, 170, 0, 4, 178, 4, 2, 178, 2, 2, 180, 5, 3, 180, 1, 3, 185, 1, 4, 186, 1, 0, 186, 5, 3, 187, 0, 1, 188, 0, 3, 189, 1, 3, 190, 3, 3, 197, 4, 4, 198, 0, 5, 199, 0, 5, 203, 2, 1, 209, 5, 1, 213, 4, 0, 215, 5, 1, 216, 3, 0, 220, 5, 2]);
