n_res = 4;
rc = [ 49, 43, 56, 43 ];
n_tasks = 92;
d = [0, 10, 3, 6, 6, 6, 10, 10, 1, 2, 9, 7, 1, 10, 9, 6, 7, 5, 2, 1, 5, 3, 5, 3, 3, 7, 6, 1, 6, 8, 10, 1, 8, 8, 5, 2, 4, 8, 6, 6, 8, 10, 5, 3, 5, 9, 7, 2, 2, 6, 8, 2, 8, 5, 1, 3, 5, 10, 2, 7, 3, 1, 6, 2, 6, 8, 3, 5, 3, 10, 10, 3, 3, 3, 2, 10, 4, 4, 1, 6, 6, 9, 10, 1, 5, 10, 10, 1, 9, 10, 1, 0];
rr = array2d(1..4, 1..92, [0, 3, 2, 7, 3, 7, 10, 2, 4, 1, 3, 0, 0, 2, 0, 7, 1, 10, 0, 6, 3, 6, 8, 0, 8, 4, 1, 5, 0, 0, 0, 7, 0, 3, 1, 10, 9, 9, 0, 9, 4, 7, 0, 2, 9, 10, 6, 10, 3, 5, 1, 4, 7, 1, 0, 2, 0, 1, 7, 7, 0, 2, 6, 9, 0, 2, 7, 0, 5, 8, 4, 8, 10, 8, 2, 8, 0, 8, 10, 0, 0, 9, 4, 0, 0, 0, 0, 1, 2, 7, 5, 0, 0, 9, 0, 7, 0, 0, 6, 2, 4, 0, 0, 4, 0, 9, 0, 2, 6, 0, 5, 3, 0, 1, 5, 9, 0, 8, 0, 8, 0, 8, 2, 0, 1, 5, 4, 3, 0, 6, 0, 0, 3, 3, 3, 2, 0, 4, 10, 10, 6, 9, 2, 10, 4, 9, 0, 8, 7, 4, 5, 4, 5, 8, 4, 10, 7, 9, 6, 7, 3, 6, 9, 1, 9, 8, 10, 0, 5, 7, 0, 10, 6, 7, 6, 4, 0, 8, 0, 6, 6, 9, 4, 0, 0, 0, 2, 10, 6, 1, 4, 4, 3, 0, 9, 0, 6, 5, 10, 8, 6, 4, 0, 1, 3, 6, 0, 10, 5, 10, 3, 0, 5, 10, 3, 0, 9, 10, 0, 0, 9, 6, 9, 0, 7, 7, 9, 1, 0, 7, 5, 8, 0, 1, 4, 8, 0, 2, 9, 6, 6, 0, 9, 8, 1, 4, 3, 1, 5, 7, 9, 0, 10, 2, 5, 0, 5, 10, 4, 1, 5, 0, 7, 0, 0, 5, 5, 0, 5, 5, 5, 10, 0, 9, 8, 0, 0, 8, 6, 2, 4, 3, 5, 3, 3, 6, 7, 10, 4, 2, 3, 3, 4, 0, 7, 0, 7, 1, 10, 2, 5, 1, 0, 1, 9, 1, 2, 0, 0, 8, 7, 1, 4, 1, 5, 2, 2, 0, 4, 10, 0, 6, 10, 0, 5, 6, 10, 0, 1, 0, 4, 0, 1, 6, 9, 7, 0, 9, 0, 8, 0, 7, 3, 7, 8, 1, 10, 6, 0, 0, 0, 9, 5, 9, 0, 8, 9, 0, 0, 5, 8, 4, 0, 0, 9, 7, 0, 0]);

suc = [
   {2, 3, 4},
   {25, 10, 35},
   {8},
   {15, 5, 7},
   {9, 6, 14},
   {49, 75, 22},
   {41},
   {66, 74, 22},
   {17, 21, 13},
   {16, 11, 12},
   {33, 19, 23},
   {24},
   {39},
   {56, 41, 54},
   {69, 47},
   {26, 55},
   {18},
   {34, 36},
   {20},
   {80, 87},
   {59, 27, 38},
   {32, 43, 77},
   {52, 71},
   {28, 31},
   {72, 29, 30},
   {29},
   {85, 46},
   {37, 55},
   {56, 74},
   {73},
   {64, 61},
   {48, 37},
   {40, 45},
   {62},
   {65, 83, 76},
   {42, 52, 61},
   {82, 39},
   {83},
   {68, 69},
   {88, 58, 53},
   {91, 43, 44},
   {68, 62},
   {64, 65},
   {89, 74, 84},
   {54, 63},
   {49, 67, 51},
   {50, 53},
   {81},
   {56, 60},
   {57},
   {53},
   {81, 68},
   {86},
   {58},
   {78, 71},
   {65},
   {75, 59, 76},
   {59, 61},
   {80, 82, 70},
   {66, 63},
   {89},
   {64, 66, 80},
   {72},
   {82},
   {90},
   {77, 69, 78},
   {75, 70},
   {72, 73},
   {89},
   {73},
   {76, 84},
   {78, 79},
   {79},
   {90},
   {77, 87},
   {79},
   {88},
   {88},
   {86, 87},
   {81},
   {83},
   {85},
   {84},
   {85},
   {86},
   {90},
   {91},
   {91},
   {92},
   {92},
   {92},
   {  } ];

deadline = array2d(1..92, 1..3, [2, 4, 1, 3, 5, 1, 5, 5, 3, 7, 3, 2, 11, 0, 3, 15, 5, 2, 16, 2, 2, 16, 4, 3, 17, 5, 4, 19, 0, 1, 23, 0, 3, 26, 0, 3, 27, 5, 1, 28, 0, 1, 30, 5, 5, 30, 4, 2, 30, 5, 5, 31, 2, 4, 31, 4, 3, 33, 2, 5, 40, 0, 0, 40, 0, 0, 41, 4, 5, 42, 3, 2, 43, 1, 2, 46, 3, 1, 48, 0, 3, 50, 1, 2, 56, 4, 2, 59, 3, 2, 63, 5, 2, 65, 3, 0, 66, 1, 0, 67, 2, 5, 73, 2, 3, 74, 2, 5, 76, 0, 2, 87, 1, 5, 88, 4, 3, 90, 5, 4, 91, 2, 2, 92, 2, 0, 100, 0, 1, 101, 1, 2, 107, 3, 0, 108, 3, 1, 124, 3, 1, 128, 2, 4, 132, 0, 5, 136, 0, 4, 139, 0, 3, 141, 5, 4, 141, 4, 3, 142, 3, 3, 142, 0, 0, 148, 4, 5, 149, 5, 2, 157, 4, 0, 161, 2, 1, 163, 1, 1, 163, 2, 2, 164, 0, 0, 172, 5, 3, 172, 0, 1, 174, 3, 5, 175, 5, 2, 181, 4, 1, 182, 2, 4, 183, 0, 0, 187, 4, 2, 187, 0, 1, 189, 1, 0, 190, 1, 0, 192, 5, 2, 193, 3, 2, 197, 4, 2, 204, 3, 0, 214, 1, 5, 216, 0, 2, 220, 1, 4, 223, 0, 4, 224, 3, 1, 227, 3, 4, 228, 3, 4, 228, 4, 1, 231, 2, 1, 233, 2, 3, 236, 3, 4, 239, 1, 3, 241, 2, 1, 243, 1, 4, 247, 0, 5]);
