n_res = 4;
rc = [ 81, 77, 74, 85 ];
n_tasks = 92;
d = [0, 2, 9, 4, 5, 3, 3, 8, 3, 9, 3, 7, 2, 1, 9, 10, 9, 8, 4, 1, 3, 10, 8, 8, 7, 7, 1, 3, 1, 7, 4, 8, 8, 6, 6, 5, 6, 10, 5, 5, 8, 6, 9, 2, 8, 9, 7, 9, 4, 1, 5, 2, 8, 9, 3, 10, 5, 9, 5, 6, 2, 10, 7, 2, 8, 5, 6, 8, 2, 8, 3, 5, 7, 3, 6, 9, 6, 4, 8, 3, 9, 5, 6, 4, 7, 4, 2, 7, 2, 2, 10, 0];
rr = array2d(1..4, 1..92, [0, 7, 9, 0, 8, 0, 10, 6, 0, 4, 0, 3, 0, 0, 7, 9, 0, 6, 5, 1, 2, 5, 2, 8, 8, 0, 4, 6, 0, 0, 0, 8, 0, 8, 9, 2, 0, 8, 9, 0, 5, 5, 4, 0, 10, 0, 0, 10, 7, 10, 2, 0, 2, 7, 7, 1, 5, 4, 8, 9, 4, 10, 8, 2, 4, 7, 6, 9, 9, 0, 2, 0, 1, 0, 10, 0, 10, 10, 3, 8, 2, 1, 5, 2, 9, 8, 0, 3, 9, 0, 5, 0, 0, 0, 8, 9, 5, 3, 0, 3, 1, 3, 4, 9, 4, 0, 4, 5, 2, 10, 2, 7, 10, 7, 6, 9, 2, 10, 0, 3, 9, 6, 0, 4, 8, 0, 1, 0, 5, 6, 8, 5, 3, 2, 1, 6, 6, 3, 0, 5, 9, 0, 0, 3, 8, 8, 5, 2, 0, 0, 3, 5, 5, 2, 7, 1, 9, 0, 0, 1, 1, 0, 2, 5, 9, 8, 10, 10, 7, 4, 0, 2, 6, 0, 8, 9, 3, 3, 0, 0, 2, 10, 0, 0, 0, 5, 2, 1, 0, 1, 7, 8, 0, 0, 7, 9, 8, 2, 2, 1, 8, 7, 0, 10, 0, 2, 0, 0, 9, 3, 10, 0, 5, 4, 0, 10, 7, 5, 0, 1, 0, 6, 4, 7, 0, 7, 6, 3, 10, 0, 10, 9, 2, 0, 2, 1, 7, 2, 7, 3, 5, 9, 0, 0, 5, 1, 2, 4, 2, 6, 0, 4, 5, 8, 8, 5, 6, 1, 4, 6, 6, 0, 0, 3, 0, 7, 10, 5, 3, 7, 6, 7, 6, 1, 0, 0, 0, 8, 0, 0, 3, 4, 0, 2, 8, 0, 3, 0, 9, 7, 0, 5, 10, 10, 2, 9, 0, 3, 5, 9, 0, 10, 0, 0, 0, 9, 4, 1, 8, 9, 6, 7, 9, 9, 6, 5, 6, 0, 0, 7, 9, 10, 7, 9, 1, 6, 2, 9, 7, 0, 10, 0, 2, 0, 3, 10, 0, 7, 2, 8, 8, 0, 8, 8, 4, 10, 5, 7, 0, 4, 0, 5, 0, 0, 9, 8, 9, 0, 0, 6, 10, 4, 1, 3, 7, 8, 8, 0]);

suc = [
   {2, 3, 4},
   {8, 18, 15},
   {69, 5, 6},
   {42, 75},
   {20, 14, 7},
   {9, 87, 33},
   {25, 12, 13},
   {21},
   {16, 10, 11},
   {40, 90, 30},
   {32, 50, 44},
   {77},
   {52, 38},
   {19, 30, 31},
   {17, 27, 22},
   {40},
   {89, 73},
   {60},
   {39},
   {64},
   {24, 28},
   {26, 29, 23},
   {43, 47},
   {45},
   {51},
   {36},
   {48, 72},
   {58},
   {49, 55},
   {56, 53},
   {34},
   {35},
   {35},
   {45, 37},
   {51, 46},
   {65, 41},
   {57},
   {54, 71},
   {65, 84, 86},
   {72},
   {61},
   {67},
   {49, 54, 57},
   {68},
   {66},
   {64, 83, 61},
   {87},
   {76},
   {58},
   {82, 54},
   {62},
   {58},
   {55},
   {60},
   {57},
   {75},
   {76},
   {59},
   {87},
   {63},
   {68},
   {74, 70},
   {85},
   {79},
   {79, 71},
   {80},
   {72},
   {81},
   {78},
   {80, 71},
   {88},
   {88},
   {85},
   {84},
   {81},
   {78},
   {78},
   {83},
   {82, 85},
   {86},
   {88},
   {89},
   {86},
   {90},
   {90},
   {89},
   {91},
   {91},
   {92},
   {92},
   {92},
   {  } ];

deadline = array2d(1..92, 1..3, [3, 5, 3, 3, 0, 4, 3, 0, 3, 4, 5, 5, 5, 1, 5, 5, 4, 2, 6, 3, 4, 7, 1, 0, 7, 4, 3, 7, 3, 5, 9, 3, 4, 18, 0, 1, 22, 0, 1, 26, 3, 1, 26, 0, 3, 27, 1, 4, 30, 3, 0, 32, 1, 4, 34, 1, 3, 36, 3, 5, 38, 4, 2, 39, 1, 4, 40, 0, 3, 41, 2, 4, 42, 3, 5, 46, 1, 2, 48, 1, 0, 49, 3, 3, 51, 2, 5, 51, 1, 1, 53, 4, 5, 54, 2, 5, 58, 3, 0, 64, 4, 4, 64, 2, 0, 66, 0, 3, 70, 5, 2, 72, 2, 1, 72, 1, 3, 73, 0, 4, 75, 2, 1, 76, 2, 3, 78, 3, 0, 82, 0, 4, 83, 5, 0, 84, 0, 2, 88, 0, 3, 92, 5, 0, 95, 3, 3, 95, 4, 5, 98, 5, 2, 100, 4, 5, 100, 1, 4, 101, 1, 4, 101, 5, 2, 101, 0, 0, 101, 4, 4, 103, 0, 4, 105, 2, 1, 106, 0, 1, 108, 3, 2, 108, 2, 0, 109, 3, 0, 110, 2, 4, 110, 5, 4, 111, 2, 5, 118, 2, 1, 119, 1, 4, 120, 3, 5, 121, 1, 4, 132, 1, 1, 135, 1, 1, 136, 5, 5, 136, 0, 0, 139, 3, 1, 139, 2, 4, 141, 5, 0, 143, 2, 1, 147, 5, 1, 148, 3, 2, 149, 3, 3, 149, 2, 3, 150, 2, 0, 154, 3, 5, 156, 4, 2, 159, 3, 2, 162, 4, 1, 163, 5, 2, 164, 0, 2, 170, 3, 3, 179, 1, 3, 184, 4, 3]);
