n_res = 4;
rc = [ 52, 48, 49, 54 ];
n_tasks = 92;
d = [0, 9, 3, 8, 5, 8, 5, 2, 2, 2, 3, 1, 7, 7, 2, 8, 8, 10, 1, 3, 4, 2, 6, 8, 10, 7, 6, 9, 6, 3, 8, 6, 9, 6, 9, 10, 10, 1, 8, 2, 2, 8, 1, 5, 3, 7, 9, 4, 9, 6, 7, 7, 9, 7, 7, 2, 9, 8, 6, 4, 7, 9, 6, 3, 6, 6, 9, 1, 5, 7, 2, 4, 2, 2, 6, 2, 9, 2, 2, 4, 9, 5, 10, 5, 7, 9, 8, 6, 10, 4, 6, 0];
rr = array2d(1..4, 1..92, [0, 1, 1, 9, 8, 10, 5, 6, 7, 5, 7, 1, 6, 1, 7, 3, 3, 5, 2, 9, 2, 5, 7, 6, 5, 6, 7, 1, 6, 10, 7, 3, 10, 2, 4, 3, 9, 9, 6, 3, 5, 1, 4, 7, 7, 3, 9, 4, 5, 2, 4, 2, 6, 6, 3, 9, 3, 8, 8, 1, 1, 2, 8, 2, 5, 7, 2, 9, 3, 10, 7, 4, 3, 8, 2, 3, 3, 4, 5, 5, 7, 7, 10, 8, 1, 2, 7, 3, 3, 2, 3, 0, 0, 4, 4, 9, 1, 3, 2, 6, 4, 3, 6, 4, 2, 3, 6, 1, 4, 9, 2, 10, 7, 2, 7, 3, 4, 8, 7, 1, 3, 8, 3, 3, 5, 5, 1, 7, 1, 2, 8, 5, 2, 10, 4, 5, 6, 8, 2, 7, 10, 9, 6, 9, 10, 9, 1, 5, 3, 4, 5, 3, 4, 9, 7, 6, 6, 3, 5, 7, 7, 9, 7, 10, 10, 2, 9, 10, 1, 2, 1, 9, 2, 5, 10, 10, 1, 10, 7, 8, 2, 7, 4, 0, 0, 6, 6, 10, 9, 10, 3, 10, 5, 3, 1, 2, 8, 1, 2, 7, 3, 5, 3, 7, 8, 1, 4, 2, 8, 7, 10, 9, 5, 9, 6, 3, 7, 4, 2, 10, 3, 7, 8, 2, 9, 2, 4, 1, 10, 2, 2, 5, 4, 8, 3, 9, 7, 9, 4, 7, 5, 2, 8, 10, 2, 4, 2, 2, 6, 5, 2, 6, 6, 6, 2, 9, 6, 9, 9, 7, 5, 5, 6, 5, 5, 9, 5, 7, 6, 2, 3, 10, 3, 6, 10, 0, 0, 10, 3, 9, 6, 10, 4, 4, 2, 6, 10, 9, 6, 1, 5, 9, 1, 1, 2, 5, 10, 7, 8, 10, 4, 10, 2, 10, 5, 5, 2, 8, 4, 2, 8, 9, 5, 1, 1, 6, 8, 1, 10, 6, 6, 9, 9, 5, 7, 9, 9, 7, 4, 9, 9, 4, 4, 9, 10, 7, 9, 1, 8, 4, 5, 4, 6, 10, 1, 6, 7, 2, 3, 10, 10, 10, 1, 7, 4, 3, 5, 7, 8, 9, 1, 10, 1, 6, 10, 7, 4, 0]);

suc = [
   {2, 3, 4},
   {8, 11, 12},
   {10, 6, 7},
   {5, 14, 23},
   {86, 85, 70},
   {64, 9, 18},
   {16, 78},
   {58, 20, 30},
   {21, 47},
   {35, 13},
   {31, 22, 15},
   {16},
   {36, 22},
   {32, 17, 29},
   {24, 34, 19},
   {36},
   {33, 62, 71},
   {46},
   {72, 54},
   {40, 39},
   {25},
   {53, 27, 37},
   {45},
   {65, 28},
   {56, 26, 83},
   {87},
   {45},
   {50},
   {34},
   {36},
   {80},
   {38},
   {67, 44},
   {48, 41, 43},
   {57},
   {49},
   {42},
   {86},
   {59, 76, 84},
   {61},
   {68},
   {57, 74, 51},
   {68},
   {49, 57},
   {60, 63},
   {77, 55},
   {76},
   {83},
   {53},
   {66},
   {52},
   {69},
   {75},
   {78},
   {82},
   {75},
   {75},
   {73},
   {91},
   {79},
   {73, 62},
   {69},
   {81, 78},
   {68},
   {71},
   {76},
   {83},
   {81, 74},
   {87},
   {80},
   {72, 84},
   {90},
   {88},
   {82},
   {86},
   {85},
   {91},
   {88},
   {90},
   {87},
   {82},
   {85},
   {89},
   {91},
   {88},
   {89},
   {89},
   {90},
   {92},
   {92},
   {92},
   {  } ];

deadline = array2d(1..92, 1..3, [1, 2, 5, 1, 5, 0, 3, 4, 1, 4, 1, 5, 4, 0, 0, 4, 3, 4, 4, 0, 4, 5, 0, 4, 6, 2, 4, 6, 4, 5, 7, 3, 2, 11, 0, 1, 15, 5, 5, 18, 4, 4, 18, 3, 4, 19, 0, 2, 21, 1, 5, 24, 5, 4, 26, 4, 5, 26, 2, 1, 27, 0, 1, 28, 2, 2, 31, 2, 3, 32, 1, 5, 32, 3, 3, 35, 5, 0, 36, 3, 3, 37, 5, 5, 37, 4, 4, 46, 4, 5, 46, 0, 1, 54, 2, 1, 55, 0, 0, 57, 0, 1, 59, 0, 0, 61, 1, 3, 65, 3, 5, 67, 2, 1, 75, 0, 0, 78, 0, 4, 78, 2, 3, 80, 3, 1, 84, 2, 4, 84, 0, 3, 85, 2, 1, 86, 2, 1, 87, 1, 4, 90, 4, 3, 93, 1, 1, 97, 0, 4, 98, 0, 0, 101, 5, 0, 103, 3, 5, 103, 2, 0, 104, 0, 0, 105, 4, 5, 111, 0, 0, 117, 0, 3, 120, 5, 3, 121, 2, 2, 123, 1, 4, 124, 4, 5, 124, 0, 4, 125, 2, 2, 125, 5, 5, 130, 3, 0, 133, 2, 4, 136, 0, 1, 137, 2, 2, 148, 3, 2, 150, 0, 0, 150, 4, 5, 151, 4, 3, 157, 0, 5, 158, 3, 5, 159, 2, 5, 160, 3, 0, 161, 2, 2, 167, 3, 5, 167, 2, 4, 172, 3, 1, 172, 4, 0, 174, 0, 0, 175, 5, 2, 176, 3, 5, 182, 3, 3, 184, 4, 0, 184, 3, 4, 187, 3, 0, 189, 1, 4, 194, 2, 5, 195, 4, 2]);
