n_res = 4;
rc = [ 39, 44, 52, 61 ];
n_tasks = 92;
d = [0, 7, 5, 2, 4, 7, 6, 1, 6, 5, 5, 10, 10, 10, 10, 10, 8, 4, 3, 5, 2, 6, 10, 4, 4, 8, 8, 8, 1, 9, 1, 1, 10, 3, 2, 9, 3, 6, 10, 1, 5, 4, 5, 2, 1, 9, 9, 3, 8, 5, 5, 6, 1, 3, 10, 9, 6, 5, 10, 1, 10, 4, 3, 9, 5, 4, 5, 9, 6, 3, 8, 2, 9, 5, 4, 4, 5, 5, 4, 7, 9, 2, 3, 4, 6, 2, 5, 6, 6, 4, 7, 0];
rr = array2d(1..4, 1..92, [0, 1, 9, 4, 2, 0, 9, 4, 5, 3, 5, 0, 3, 10, 2, 0, 4, 5, 1, 0, 5, 5, 1, 0, 10, 10, 0, 4, 2, 3, 9, 1, 0, 1, 8, 9, 4, 6, 0, 6, 3, 4, 8, 2, 10, 10, 0, 6, 6, 8, 0, 0, 0, 5, 4, 4, 0, 6, 8, 7, 0, 0, 0, 8, 2, 7, 0, 0, 9, 0, 4, 1, 4, 0, 0, 3, 6, 0, 0, 3, 1, 7, 5, 0, 0, 5, 5, 8, 0, 7, 0, 0, 0, 2, 3, 6, 9, 7, 10, 7, 10, 5, 6, 0, 0, 0, 3, 0, 1, 8, 1, 7, 0, 0, 0, 10, 2, 8, 6, 8, 6, 5, 5, 3, 5, 0, 10, 9, 0, 6, 2, 0, 1, 4, 7, 0, 0, 4, 10, 0, 9, 6, 0, 3, 0, 10, 8, 1, 5, 5, 0, 0, 2, 1, 8, 1, 1, 0, 5, 0, 8, 4, 6, 6, 0, 8, 0, 10, 3, 2, 6, 8, 0, 0, 8, 3, 2, 7, 2, 9, 5, 7, 4, 0, 0, 5, 6, 9, 0, 2, 6, 0, 8, 10, 10, 8, 1, 0, 5, 3, 10, 2, 0, 0, 9, 4, 1, 9, 10, 1, 8, 8, 5, 0, 10, 9, 6, 4, 4, 1, 2, 10, 3, 2, 5, 0, 4, 3, 10, 6, 7, 1, 5, 0, 9, 10, 9, 3, 8, 1, 2, 6, 6, 8, 7, 5, 8, 10, 0, 10, 0, 7, 6, 4, 2, 2, 3, 6, 1, 10, 0, 0, 6, 8, 5, 4, 6, 8, 4, 7, 10, 0, 0, 2, 6, 0, 0, 7, 9, 7, 0, 6, 0, 6, 0, 3, 7, 9, 0, 9, 7, 5, 0, 9, 4, 0, 8, 3, 0, 3, 0, 2, 3, 7, 0, 5, 0, 3, 7, 0, 8, 9, 1, 0, 8, 0, 0, 1, 4, 9, 8, 7, 0, 6, 9, 1, 9, 10, 9, 10, 8, 9, 5, 0, 0, 2, 2, 8, 0, 4, 0, 9, 5, 8, 5, 0, 10, 0, 4, 6, 9, 2, 7, 1, 0, 0, 10, 10, 0, 7, 5, 9, 7, 9, 10, 5, 0, 0]);

suc = [
   {2, 3, 4},
   {51, 5, 30},
   {8, 25, 18},
   {19, 29, 38},
   {10, 6, 14},
   {40, 33, 7},
   {9, 11, 13},
   {17, 85, 39},
   {16, 21, 22},
   {67},
   {24, 12, 37},
   {20, 70},
   {26, 36, 15},
   {57, 58, 87},
   {35, 27, 59},
   {43, 19, 37},
   {51, 79},
   {40, 45, 23},
   {50, 36, 39},
   {80, 90, 45},
   {63, 86, 31},
   {27, 44, 31},
   {33, 36},
   {48, 34, 53},
   {74, 29, 46},
   {72, 28, 78},
   {65, 57},
   {32, 42, 76},
   {64, 51, 68},
   {46, 38},
   {64, 38},
   {41, 52, 53},
   {49, 58, 47},
   {41, 82, 63},
   {73, 61, 62},
   {59, 62},
   {44, 61, 68},
   {60, 61, 39},
   {83},
   {56, 42, 72},
   {74, 91, 54},
   {50, 55},
   {49, 50, 44},
   {91, 76},
   {73},
   {67, 68, 62},
   {52, 60, 55},
   {57, 52},
   {75, 60},
   {59, 53},
   {56, 75},
   {64, 74, 54},
   {66, 83, 54},
   {73, 77},
   {79},
   {81, 58},
   {66, 78},
   {88, 69, 63},
   {67, 77, 69},
   {65},
   {65, 70},
   {66, 91, 84},
   {78},
   {77},
   {71},
   {82, 69},
   {85},
   {71},
   {86},
   {72, 71},
   {76},
   {81, 75},
   {86},
   {80},
   {80, 82},
   {85, 79},
   {84},
   {89},
   {81},
   {88},
   {90, 83},
   {90},
   {84},
   {87},
   {87},
   {89},
   {88},
   {89},
   {92},
   {92},
   {92},
   {  } ];

deadline = array2d(1..92, 1..3, [2, 5, 4, 5, 3, 0, 8, 2, 2, 12, 1, 3, 12, 2, 1, 14, 1, 3, 15, 4, 0, 16, 0, 3, 20, 3, 2, 21, 1, 3, 22, 1, 0, 24, 0, 4, 25, 4, 0, 32, 5, 2, 37, 2, 5, 40, 2, 2, 41, 5, 2, 45, 1, 5, 46, 0, 0, 47, 0, 3, 48, 3, 1, 51, 2, 1, 51, 2, 1, 52, 0, 3, 57, 0, 4, 60, 0, 1, 62, 1, 1, 65, 3, 2, 68, 1, 0, 71, 1, 3, 72, 0, 1, 83, 2, 3, 84, 1, 0, 88, 4, 5, 94, 5, 5, 94, 5, 5, 97, 1, 4, 99, 4, 5, 102, 0, 5, 104, 5, 2, 106, 3, 3, 108, 5, 3, 114, 0, 0, 121, 3, 4, 122, 2, 0, 122, 2, 1, 124, 4, 5, 125, 2, 0, 132, 5, 5, 137, 3, 0, 141, 5, 0, 142, 0, 4, 143, 1, 3, 145, 2, 2, 145, 1, 1, 149, 0, 2, 155, 1, 5, 157, 5, 2, 159, 2, 3, 162, 0, 2, 163, 5, 3, 165, 1, 5, 168, 0, 2, 170, 2, 2, 172, 1, 1, 173, 4, 2, 173, 4, 0, 174, 4, 4, 175, 3, 1, 178, 1, 0, 190, 3, 5, 192, 4, 4, 198, 2, 3, 202, 3, 2, 202, 0, 5, 207, 1, 3, 208, 4, 1, 209, 3, 0, 215, 3, 4, 215, 1, 2, 216, 3, 1, 217, 2, 2, 223, 3, 4, 237, 3, 2, 254, 3, 1, 261, 5, 0, 261, 3, 4, 262, 1, 5, 264, 0, 4, 266, 2, 3, 266, 3, 1, 268, 0, 0]);
